Li63 Nb64 O192                          
   1.00000000000000     
    15.1469600000000000   -0.0012470000000000   -0.0011610000000000
     1.0576070000000000   15.1097420000000007   -0.0009680000000000
     1.0576360000000000    0.9859670000000000   15.0777149999999995
   Li   Nb   O 
    63    64   192
Direct
  0.2502345901813925  0.2506195999111895  0.2498275042959719
  0.2509720377337175  0.2504401603968915  0.7488095077823758
  0.2501489805728951  0.7500138818572637  0.2503270685906571
  0.2501931076392552  0.7499103658446273  0.7500514248621855
  0.7489982511421758  0.2513839742021702  0.2503125339426191
  0.7499899589017360  0.2503494137011302  0.7497687838014855
  0.7499424183199324  0.7499976958208308  0.2501964978453302
  0.7500430944265517  0.7499550024342909  0.7501121581648604
  0.0002405133152692  0.2502638366173073  0.9999452843174552
  0.9995177049974302  0.2509722552590574  0.4999351075124636
  0.0000801699663313  0.7500796907674570  0.0000808849963647
  0.9999449572530068  0.7502395517198224  0.5002645081478505
  0.5009730608386462  0.2499342678138206  0.9995182785552927
  0.5002638645947073  0.7499450122957541  0.0002405209247485
  0.4999347734217920  0.7495173961174828  0.5009735869848271
  0.2503270501889574  0.0001488214232168  0.0000146253378546
  0.2498266454909626  0.0002340319087608  0.5006204120401279
  0.2501959247466061  0.4999421412148948  0.9999985019101274
  0.2503122241975362  0.4989980006067967  0.5013848592925427
  0.7500511275045554  0.0001926480238197  0.9999113716728374
  0.7488090133276728  0.0009715275634576  0.5004410303435094
  0.7501116563794028  0.5000426213735949  0.9999557383072641
  0.7497683955575667  0.4999896025116541  0.5003501036285556
  0.0000143770716150  0.0003262403680466  0.2501494636911588
  0.9999979427646295  0.0001955748463658  0.7499430625671479
  0.9999108312515332  0.5000505553029981  0.2501936510370584
  0.9999553855107735  0.5001111962341724  0.7500437412632976
  0.5006199199164243  0.9998267199368698  0.2502347025817144
  0.5013844834552685  0.0003118478242925  0.7489988298726189
  0.5004403661388537  0.4988088264015573  0.2509724093382175
  0.5003504035827433  0.4997684805762432  0.7499905251113006
  0.0000293403853604  0.0001780299634717  0.0001463063466645
  0.9998552739133260  0.9999639737137187  0.5004095670479103
  0.0000242623664448  0.5001089979678284  0.0001480007866164
  0.0000564121887408  0.4995809801118511  0.5002991292891608
  0.5002740697377774  0.0007001440991772  0.9996049220077552
  0.5013338264667695  0.0003544236410065  0.5003651223711003
  0.5002680022754475  0.5001249136388992  0.9999543852884116
  0.5013285938866048  0.5018108897295548  0.4999200227967364
  0.2503726910071151  0.0003721066052691  0.2503720228173165
  0.2503503945357366  0.0004770249608086  0.7496486714111796
  0.2504769904306343  0.4996488492286275  0.2503500768643789
  0.2503291757866180  0.4990724690303168  0.7485228929058607
  0.7496489960712793  0.0003503635302025  0.2504762464278798
  0.7485233371815241  0.0003290320356868  0.7490716028555511
  0.7490723188465367  0.4985226570273866  0.2503284778731398
  0.7500857425360081  0.5000854528825300  0.7500852114904788
  0.9996053695603564  0.2502742829982623  0.2506997395424904
  0.9999545851754732  0.2502678775411979  0.7501246886247088
  0.0001467961345867  0.7500291986294130  0.2501773262112152
  0.0001484343750704  0.7500243129291135  0.7501087796604011
  0.5003655484036926  0.2513336938736188  0.2503540701494558
  0.4999207390256046  0.2513287374202946  0.7518106207532469
  0.5004102296786996  0.7498551253456043  0.2499635054634197
  0.5002998418016702  0.7500563125991491  0.7495803109461150
  0.2499640419394424  0.2504100747360454  0.9998546443654490
  0.2503546446472598  0.2503652386364692  0.5013334682846491
  0.2501779877493462  0.7501466020395426  0.0000290884025063
  0.2507001482793001  0.7496051299610471  0.5002739864345571
  0.7495810440599726  0.2502995632724492  0.0000561488687367
  0.7518108192575070  0.2499205541072556  0.5013286541822382
  0.7501093166965305  0.7501482775332065  0.0000238388217895
  0.7501250495498226  0.7499545034502759  0.5002673937452400
  0.1085542871267222  0.1087391191985816  0.1087350306554029
  0.1079230545633862  0.1087266234301651  0.6088163408379970
  0.1087886516852947  0.6086312129947729  0.1087270379320273
  0.1087259420187436  0.6084937039753413  0.6086117113697682
  0.6086833722996303  0.1088667770590064  0.1083566513369263
  0.6064181994643079  0.1127962990290143  0.6078791814364237
  0.6088464231421966  0.6084054628374815  0.1086558625411840
  0.6092068219323963  0.6084700243935615  0.6090495050046769
  0.3590556858494836  0.1090530652071493  0.3590539374070900
  0.3586064628588943  0.1088615681732179  0.8582405222984661
  0.3588639469853163  0.6082398200525816  0.3586046056303829
  0.3587485047189887  0.6087049503304129  0.8585875572658708
  0.8582424230531487  0.1086038627894936  0.3588623612233235
  0.8585893228562114  0.1087459772098072  0.8587054012767723
  0.8587073541109689  0.6085863565988703  0.3587468977353723
  0.8587776178901763  0.6087750332214199  0.8587759388929967
  0.1083578397707328  0.3586813729129332  0.3588676082264186
  0.1086580001565167  0.3588438842757071  0.8584059482908870
  0.1087366624932642  0.8585516466049938  0.3587398019559345
  0.1087283278490645  0.8587860570926438  0.8586320681284363
  0.6078808922915542  0.3564158102697164  0.3627972345999737
  0.6090512363790666  0.3592041313789025  0.8584711389566309
  0.6088178595425688  0.8579207997416844  0.3587273036505536
  0.6086131358324280  0.8587233021114571  0.8584947034767225
  0.3587288909404265  0.3588158579487200  0.1079206865320188
  0.3627988409997940  0.3578782763667476  0.6064166841804663
  0.3587414546719145  0.8587341421394257  0.1085526480529495
  0.3588692043007313  0.8583553954396024  0.6086820989754997
  0.8584965392591712  0.3586102700373743  0.1087239150782935
  0.8584726089662880  0.3590487010007308  0.6092050475697022
  0.8586336591547550  0.8587259413515511  0.1087869039233311
  0.8584078510679305  0.8586552516215349  0.6088444028601927
  0.3591821958517869  0.3582870374671572  0.3585363015676890
  0.3588934878089560  0.3586571472192901  0.8579513800277851
  0.3587439428959769  0.8584774509790876  0.3587752211848994
  0.3589620801005182  0.8586168549020243  0.8586409299648352
  0.8574173186258420  0.3591004624236476  0.3586051877731009
  0.8589293355529861  0.3587667104201557  0.8586984892103544
  0.8586077455165224  0.8587921149517257  0.3587673543016408
  0.8587218082924366  0.8588855987863298  0.8585834485708901
  0.1084523718214712  0.3587592225167811  0.1085642777366402
  0.1087872650661481  0.3588775444770675  0.6091554178590073
  0.1086867559946540  0.8586848704861012  0.1086870243025189
  0.1085637903090912  0.8584502840225738  0.6087615877463222
  0.6088794369683725  0.3591527428129311  0.1087878146964982
  0.6086233736457132  0.3586218707145008  0.6086240288835540
  0.6087613140843473  0.8585620585157301  0.1084526673314201
  0.6091549558708564  0.8587855793473267  0.6088798849085961
  0.3587747893733919  0.1087420101160177  0.1084799190793646
  0.3585359026191597  0.1091803911033153  0.6082895704747102
  0.3587670526653142  0.6086054637647749  0.1087948187588168
  0.3586051022597161  0.6074153372553752  0.6091027497655901
  0.8586408842548963  0.1089600543746911  0.1086193896180916
  0.8579507037747760  0.1088913605231170  0.6086595837762587
  0.8585830845013049  0.6087197570413068  0.1088879708153243
  0.8586981569811343  0.6089274314360154  0.6087688459055585
  0.1084797221006042  0.1087724025411845  0.3587442154814084
  0.1087942546320591  0.1087642605065895  0.8586079379824980
  0.1086190460023175  0.6086387419221566  0.3589622619512127
  0.1088876750465815  0.6085807916495654  0.8587222307488389
  0.6082892231032204  0.1085340963298336  0.3591825715514148
  0.6091026361783136  0.1086030227811605  0.8574179944729252
  0.6086592008220464  0.6079489253696480  0.3588938502547663
  0.6087686452754397  0.6086954113926595  0.8589297446281066
  0.3145370270497239  0.2267828310895581  0.3794785909023943
  0.3142859267138931  0.2265106154728045  0.8793685710855428
  0.3143434937585994  0.7263941007524508  0.3790942687056500
  0.3141879769196265  0.7263445668198045  0.8794916436295424
  0.8148272492400750  0.2262526028370928  0.3800705841010554
  0.8144811231835405  0.2264440527434601  0.8797188065869719
  0.8144354201866193  0.7263655536752509  0.3795347577634587
  0.8144229507804326  0.7264680762366851  0.8796043664661823
  0.0642933780750283  0.2264206322146620  0.1296480745743054
  0.0640997317942791  0.2265728891843466  0.6296967919191516
  0.0643663272387940  0.7264338735828275  0.1294739160031853
  0.0642253812435740  0.7263861386850010  0.6294875823180419
  0.5645760557067092  0.2266105152206848  0.1293397469061759
  0.5666175474722976  0.2280481386139073  0.6352754827264988
  0.5643588627919272  0.7262772969402249  0.1292847238274391
  0.5640591350917603  0.7258779871494738  0.6294334954574268
  0.3142780079846261  0.4765919367319000  0.1290883438693555
  0.3144621246352557  0.4760933731063943  0.6282937907097761
  0.3143499056902144  0.9764205891600071  0.1295584806323120
  0.3142661897751324  0.9758192215871659  0.6295756868596598
  0.8143671417269331  0.4764935479925754  0.1294808398968996
  0.8145911942073880  0.4769322569008310  0.6299097520742478
  0.8144968859520745  0.9764189056995036  0.1296693752389402
  0.8145039534619158  0.9763455210654826  0.6297768388389287
  0.0641403737294581  0.4766779577642026  0.3794037999407109
  0.0643363908876466  0.4765466515779053  0.8796704548105510
  0.0645740299218147  0.9763299869616731  0.3796314015132580
  0.0643052227612557  0.9763910857081015  0.8796514574736705
  0.5650381996317719  0.4762534136024357  0.3797845580371799
  0.5643275428292185  0.4768378612263362  0.8799050254345673
  0.5642834893633619  0.9755613826638552  0.3784228485552035
  0.5643347479549377  0.9761843053772452  0.8795642050381929
  0.3784220590041514  0.3142847787520893  0.2255609161276837
  0.3797849154742394  0.3150390917662946  0.7262531256388272
  0.3796319239552020  0.8145749795398984  0.2263298010284984
  0.3794038233050117  0.8141411765520203  0.7266776481550394
  0.8795645331669348  0.3143353035761223  0.2261841092831247
  0.8799050831567499  0.3143284310593231  0.7268375513370628
  0.8796517043993504  0.8143063785266875  0.2263907045213571
  0.8796707505634345  0.8143378365601421  0.7265463876006564
  0.1293401208463791  0.3145771866773543  0.4766102067529800
  0.1292850593102557  0.3143595890852069  0.9762773324024394
  0.1296483412223850  0.8142944854510006  0.4764203170298131
  0.1294743561685934  0.8143675123659833  0.9764336762236425
  0.6352754002005909  0.3166180166398576  0.4780483662251456
  0.6294341458089079  0.3140600948656527  0.9758775534243398
  0.6296970549886325  0.8141011801398719  0.4765726207884811
  0.6294880001588581  0.8142264356531967  0.9763857716960231
  0.3794787209976320  0.0645377358364669  0.4767826461186857
  0.3790944342633793  0.0643443483285040  0.9763941008902890
  0.3800708609108554  0.5648284491614604  0.4762523359726885
  0.3795352264075902  0.5644361527513837  0.9763654273161464
  0.8793691568296538  0.0642870536270053  0.4765102034675550
  0.8794917604630612  0.0641896970995575  0.9763444112208006
  0.8797193989728953  0.5644819037020810  0.4764439816424897
  0.8796049921418856  0.5644241192185788  0.9764676542385189
  0.1295587469504866  0.0643508562255803  0.2264203325559890
  0.1290887113920220  0.0642789759755189  0.7265915938712340
  0.1296697562443541  0.5644981123838093  0.2264184447645903
  0.1294812725569159  0.5643681385571924  0.7264932754446889
  0.6295759594549892  0.0642671941180168  0.2258190239760225
  0.6282939321637215  0.0644626445371443  0.7260933661591125
  0.6297779251285078  0.5645054700183820  0.2263452291380901
  0.6299101842178274  0.5645921584082245  0.7269319908016882
  0.2258182895872807  0.3795767286186589  0.3142685643575618
  0.2263450376734326  0.3797786942422334  0.8145056247276941
  0.2264201202637395  0.8795596465625835  0.3143511201996603
  0.2264175471876015  0.8796716904428550  0.8144987616772781
  0.7260930139907487  0.3782947533848642  0.3144630433424567
  0.7269316406171100  0.3799108715329425  0.8145923953077059
  0.7265913418698773  0.8790896471350678  0.3142792695998722
  0.7264930620708512  0.8794823950730191  0.8143681960387923
  0.4765724912944265  0.3796978941774398  0.0641012444420710
  0.4780488933234039  0.3852765848029378  0.5666187806246512
  0.4764201253582954  0.8796492214252609  0.0642948434030899
  0.4766095666936749  0.8793409367643505  0.5645775876704064
  0.9763855522091518  0.3794886130421062  0.0642266212457443
  0.9758770560989660  0.3794349875544967  0.5640603012899845
  0.9764333085742081  0.8794755621277872  0.0643678081868018
  0.9762767723624677  0.8792861041997853  0.5643600872509822
  0.2263292865596611  0.1296328220706542  0.0645752884677790
  0.2255603563295310  0.1284247767009532  0.5642849110418808
  0.2263902875356010  0.6296526493069337  0.0643068030047189
  0.2261838423998199  0.6295653397825021  0.5643360992684237
  0.7266768837252613  0.1294061949321943  0.0641421321432460
  0.7262524946790307  0.1297861203710653  0.5650393381922214
  0.7265462824078810  0.6296716656957813  0.0643376182060535
  0.7268375206245921  0.6299059899160255  0.5643286212372232
  0.4767823682279726  0.1294797342677043  0.3145380997123723
  0.4762520247419104  0.1300718607199585  0.8148287432786532
  0.4765101406827696  0.6293697048048088  0.3142871598863053
  0.4764435252364549  0.6297202410971607  0.8144823360088509
  0.9763933379554715  0.1290961785995748  0.3143448499045363
  0.9763651260290018  0.1295360840823818  0.8144364273977800
  0.9763439637751929  0.6294927663692107  0.3141900479068553
  0.9764672399057446  0.6296057954218739  0.8144243628975545
  0.3148474785222319  0.1295031220507141  0.2264793902012556
  0.3139409040891081  0.1279721829470759  0.7272271920316484
  0.3141168331426911  0.6299212170229538  0.2261695381625515
  0.3139778285233348  0.6290384454078293  0.7267027028939665
  0.8146978398772120  0.1301608136606376  0.2261118607862613
  0.8143552710173196  0.1296394470509910  0.7265884753630161
  0.8143634247088727  0.6299111160059851  0.2263945768465661
  0.8144723844552075  0.6297228851165073  0.7265720034019552
  0.0640693643058512  0.1296666897940284  0.4763828082194053
  0.0643627932920836  0.1295137320817048  0.9764264722873222
  0.0640106835878100  0.6299721064780286  0.4764071472972304
  0.0643526793787998  0.6295706485859967  0.9764085192323151
  0.5683257863767892  0.1223292923157118  0.4773932927076245
  0.5648104261568889  0.1288705532993006  0.9759270734581520
  0.5644504314467440  0.6292132306330487  0.4765083663492007
  0.5641853364134235  0.6297970842248262  0.9765155517479442
  0.3154730377102055  0.3795474447082086  0.4766153656806793
  0.3143573545499407  0.3793547232184267  0.9760451557567933
  0.3143740499381025  0.8793077751773453  0.4764930088365062
  0.3142793735233980  0.8793437404942637  0.9764565610608216
  0.8150712114515883  0.3801060615403742  0.4766168743123202
  0.8145318843196279  0.3797367209999152  0.9762900035813118
  0.8143311748411080  0.8797179175529521  0.4764407249379019
  0.8144225350749466  0.8795409005808921  0.9764022937732548
  0.0643277154950610  0.3797143495866067  0.2262120799918534
  0.0634762690768866  0.3797759576576709  0.7270011992132765
  0.0643917660726672  0.8795537412113390  0.2263922654182835
  0.0642847174060606  0.8794351958389157  0.7265727142893823
  0.5664822021770348  0.3808257976635119  0.2250599479024658
  0.5653898465300244  0.3804631803574310  0.7271826812117084
  0.5643802932459039  0.8789857914229557  0.2261946093773588
  0.5640953931669799  0.8786460870955111  0.7270146270593827
  0.2261943564899696  0.3143800276595385  0.1289859829224653
  0.2250599811212268  0.3164820978219325  0.6308256982472003
  0.2263922552377764  0.8143917222876453  0.1295538123818929
  0.2262119185740019  0.8143273013257826  0.6297148953406690
  0.7270146306736365  0.3140952815411353  0.1286466839207847
  0.7271825495597710  0.3153894039498795  0.6304631401858387
  0.7265725550915221  0.8142844913429812  0.1294357347149813
  0.7270011416351210  0.8134760361306945  0.6297764840926874
  0.4773937267264756  0.3183255364507431  0.3723287168561029
  0.4765087123539331  0.3144500236453069  0.8792132729394240
  0.4763826897537058  0.8140693184752692  0.3796672014037412
  0.4764069517257212  0.8140091503293760  0.8799721168019445
  0.9759269463741234  0.3148097145117177  0.3788712652828536
  0.9765154554452948  0.3141849352917916  0.8797969407179664
  0.9764262903316023  0.8143625634796194  0.3795141793323396
  0.9764079173463998  0.8143524638032034  0.8795711145885221
  0.2264792713479267  0.0648470644465533  0.3795035576454779
  0.2261692825367945  0.0641165345458106  0.8799216167235357
  0.2261118285474026  0.5646973773129034  0.3801612275155790
  0.2263946038251774  0.5643630196177440  0.8799118306983118
  0.7272271630673544  0.0639405341289390  0.3779724689827617
  0.7267029176600204  0.0639774714581094  0.8790393310163793
  0.7265884151086865  0.5643549222750650  0.3796400042564088
  0.7265729516449042  0.5644702241031041  0.8797233143448580
  0.4764925570399825  0.0643736729838693  0.1293081106513867
  0.4766153761487004  0.0654723435875368  0.6295476110411684
  0.4764405433406651  0.5643305393399061  0.1297191674139526
  0.4766171597222453  0.5650710684153353  0.6301064125668319
  0.9764563200534084  0.0642788601861568  0.1293439106920218
  0.9760449983651327  0.0643569353752866  0.6293552522770582
  0.9764021625646606  0.5644222814263955  0.1295413899207887
  0.9762900128849239  0.5645316830626825  0.6297370167282921
  0.1293076323165323  0.2264931349680950  0.3143736177829055
  0.1297186353083291  0.2264404862987490  0.8143303101403205
  0.1293434673652527  0.7264569042596136  0.3142785232620469
  0.1295408497169888  0.7264026422118235  0.8144221858232825
  0.6295470040353663  0.2266158251618862  0.3154715927144807
  0.6301059649322909  0.2266172261658710  0.8150708916757026
  0.6293546172129041  0.7260459008099431  0.3143566249647165
  0.6297365867366977  0.7262904846412965  0.8145313078389478
  0.3796667001346279  0.2263831319901470  0.0640687933458040
  0.3723285885563072  0.2273935322880689  0.5683250860978433
  0.3795136115532785  0.7264268679696499  0.0643624693658609
  0.3788705528623026  0.7259275351783003  0.5648100376849285
  0.8799717091365906  0.2264071786481026  0.0640086792034751
  0.8792128300753248  0.2265088467629965  0.5644497585511772
  0.8795704441315735  0.7264086093838458  0.0643524967701836
  0.8797964416201083  0.7265160691697474  0.5641847521865913
  0.1294351292269980  0.4765732964437461  0.0642843520871423
  0.1286462780102013  0.4770160336243165  0.5640957906159727
  0.1295535686405387  0.9763926564462011  0.0643911394388752
  0.1289854341131189  0.9761948243952077  0.5643799197243098
  0.6297750238972313  0.4770005890546756  0.0634754586317570
  0.6304627773746034  0.4771827981980579  0.5653887474492691
  0.6297144090051390  0.9762122540045084  0.0643271975188924
  0.6308249713317764  0.9750603060576921  0.5664820593698181
  0.3779718917151840  0.4772275453470485  0.3139402377421305
  0.3796398997949453  0.4765886894220941  0.8143549476558718
  0.3795021618648562  0.9764804870745110  0.3148461802288836
  0.3801607192765175  0.9761120214881842  0.8146971763750201
  0.8790385591507146  0.4767031363344003  0.3139774004881133
  0.8797219396628506  0.4765734100975862  0.8144700652446488
  0.8799211356884484  0.9761699938228787  0.3141162715774044
  0.8799111482354434  0.9763949803989789  0.8143629168307456
 
  0.00000000E+00  0.00000000E+00  0.00000000E+00
  0.00000000E+00  0.00000000E+00  0.00000000E+00
  0.00000000E+00  0.00000000E+00  0.00000000E+00
  0.00000000E+00  0.00000000E+00  0.00000000E+00
  0.00000000E+00  0.00000000E+00  0.00000000E+00
  0.00000000E+00  0.00000000E+00  0.00000000E+00
  0.00000000E+00  0.00000000E+00  0.00000000E+00
  0.00000000E+00  0.00000000E+00  0.00000000E+00
  0.00000000E+00  0.00000000E+00  0.00000000E+00
  0.00000000E+00  0.00000000E+00  0.00000000E+00
  0.00000000E+00  0.00000000E+00  0.00000000E+00
  0.00000000E+00  0.00000000E+00  0.00000000E+00
  0.00000000E+00  0.00000000E+00  0.00000000E+00
  0.00000000E+00  0.00000000E+00  0.00000000E+00
  0.00000000E+00  0.00000000E+00  0.00000000E+00
  0.00000000E+00  0.00000000E+00  0.00000000E+00
  0.00000000E+00  0.00000000E+00  0.00000000E+00
  0.00000000E+00  0.00000000E+00  0.00000000E+00
  0.00000000E+00  0.00000000E+00  0.00000000E+00
  0.00000000E+00  0.00000000E+00  0.00000000E+00
  0.00000000E+00  0.00000000E+00  0.00000000E+00
  0.00000000E+00  0.00000000E+00  0.00000000E+00
  0.00000000E+00  0.00000000E+00  0.00000000E+00
  0.00000000E+00  0.00000000E+00  0.00000000E+00
  0.00000000E+00  0.00000000E+00  0.00000000E+00
  0.00000000E+00  0.00000000E+00  0.00000000E+00
  0.00000000E+00  0.00000000E+00  0.00000000E+00
  0.00000000E+00  0.00000000E+00  0.00000000E+00
  0.00000000E+00  0.00000000E+00  0.00000000E+00
  0.00000000E+00  0.00000000E+00  0.00000000E+00
  0.00000000E+00  0.00000000E+00  0.00000000E+00
  0.00000000E+00  0.00000000E+00  0.00000000E+00
  0.00000000E+00  0.00000000E+00  0.00000000E+00
  0.00000000E+00  0.00000000E+00  0.00000000E+00
  0.00000000E+00  0.00000000E+00  0.00000000E+00
  0.00000000E+00  0.00000000E+00  0.00000000E+00
  0.00000000E+00  0.00000000E+00  0.00000000E+00
  0.00000000E+00  0.00000000E+00  0.00000000E+00
  0.00000000E+00  0.00000000E+00  0.00000000E+00
  0.00000000E+00  0.00000000E+00  0.00000000E+00
  0.00000000E+00  0.00000000E+00  0.00000000E+00
  0.00000000E+00  0.00000000E+00  0.00000000E+00
  0.00000000E+00  0.00000000E+00  0.00000000E+00
  0.00000000E+00  0.00000000E+00  0.00000000E+00
  0.00000000E+00  0.00000000E+00  0.00000000E+00
  0.00000000E+00  0.00000000E+00  0.00000000E+00
  0.00000000E+00  0.00000000E+00  0.00000000E+00
  0.00000000E+00  0.00000000E+00  0.00000000E+00
  0.00000000E+00  0.00000000E+00  0.00000000E+00
  0.00000000E+00  0.00000000E+00  0.00000000E+00
  0.00000000E+00  0.00000000E+00  0.00000000E+00
  0.00000000E+00  0.00000000E+00  0.00000000E+00
  0.00000000E+00  0.00000000E+00  0.00000000E+00
  0.00000000E+00  0.00000000E+00  0.00000000E+00
  0.00000000E+00  0.00000000E+00  0.00000000E+00
  0.00000000E+00  0.00000000E+00  0.00000000E+00
  0.00000000E+00  0.00000000E+00  0.00000000E+00
  0.00000000E+00  0.00000000E+00  0.00000000E+00
  0.00000000E+00  0.00000000E+00  0.00000000E+00
  0.00000000E+00  0.00000000E+00  0.00000000E+00
  0.00000000E+00  0.00000000E+00  0.00000000E+00
  0.00000000E+00  0.00000000E+00  0.00000000E+00
  0.00000000E+00  0.00000000E+00  0.00000000E+00
  0.00000000E+00  0.00000000E+00  0.00000000E+00
  0.00000000E+00  0.00000000E+00  0.00000000E+00
  0.00000000E+00  0.00000000E+00  0.00000000E+00
  0.00000000E+00  0.00000000E+00  0.00000000E+00
  0.00000000E+00  0.00000000E+00  0.00000000E+00
  0.00000000E+00  0.00000000E+00  0.00000000E+00
  0.00000000E+00  0.00000000E+00  0.00000000E+00
  0.00000000E+00  0.00000000E+00  0.00000000E+00
  0.00000000E+00  0.00000000E+00  0.00000000E+00
  0.00000000E+00  0.00000000E+00  0.00000000E+00
  0.00000000E+00  0.00000000E+00  0.00000000E+00
  0.00000000E+00  0.00000000E+00  0.00000000E+00
  0.00000000E+00  0.00000000E+00  0.00000000E+00
  0.00000000E+00  0.00000000E+00  0.00000000E+00
  0.00000000E+00  0.00000000E+00  0.00000000E+00
  0.00000000E+00  0.00000000E+00  0.00000000E+00
  0.00000000E+00  0.00000000E+00  0.00000000E+00
  0.00000000E+00  0.00000000E+00  0.00000000E+00
  0.00000000E+00  0.00000000E+00  0.00000000E+00
  0.00000000E+00  0.00000000E+00  0.00000000E+00
  0.00000000E+00  0.00000000E+00  0.00000000E+00
  0.00000000E+00  0.00000000E+00  0.00000000E+00
  0.00000000E+00  0.00000000E+00  0.00000000E+00
  0.00000000E+00  0.00000000E+00  0.00000000E+00
  0.00000000E+00  0.00000000E+00  0.00000000E+00
  0.00000000E+00  0.00000000E+00  0.00000000E+00
  0.00000000E+00  0.00000000E+00  0.00000000E+00
  0.00000000E+00  0.00000000E+00  0.00000000E+00
  0.00000000E+00  0.00000000E+00  0.00000000E+00
  0.00000000E+00  0.00000000E+00  0.00000000E+00
  0.00000000E+00  0.00000000E+00  0.00000000E+00
  0.00000000E+00  0.00000000E+00  0.00000000E+00
  0.00000000E+00  0.00000000E+00  0.00000000E+00
  0.00000000E+00  0.00000000E+00  0.00000000E+00
  0.00000000E+00  0.00000000E+00  0.00000000E+00
  0.00000000E+00  0.00000000E+00  0.00000000E+00
  0.00000000E+00  0.00000000E+00  0.00000000E+00
  0.00000000E+00  0.00000000E+00  0.00000000E+00
  0.00000000E+00  0.00000000E+00  0.00000000E+00
  0.00000000E+00  0.00000000E+00  0.00000000E+00
  0.00000000E+00  0.00000000E+00  0.00000000E+00
  0.00000000E+00  0.00000000E+00  0.00000000E+00
  0.00000000E+00  0.00000000E+00  0.00000000E+00
  0.00000000E+00  0.00000000E+00  0.00000000E+00
  0.00000000E+00  0.00000000E+00  0.00000000E+00
  0.00000000E+00  0.00000000E+00  0.00000000E+00
  0.00000000E+00  0.00000000E+00  0.00000000E+00
  0.00000000E+00  0.00000000E+00  0.00000000E+00
  0.00000000E+00  0.00000000E+00  0.00000000E+00
  0.00000000E+00  0.00000000E+00  0.00000000E+00
  0.00000000E+00  0.00000000E+00  0.00000000E+00
  0.00000000E+00  0.00000000E+00  0.00000000E+00
  0.00000000E+00  0.00000000E+00  0.00000000E+00
  0.00000000E+00  0.00000000E+00  0.00000000E+00
  0.00000000E+00  0.00000000E+00  0.00000000E+00
  0.00000000E+00  0.00000000E+00  0.00000000E+00
  0.00000000E+00  0.00000000E+00  0.00000000E+00
  0.00000000E+00  0.00000000E+00  0.00000000E+00
  0.00000000E+00  0.00000000E+00  0.00000000E+00
  0.00000000E+00  0.00000000E+00  0.00000000E+00
  0.00000000E+00  0.00000000E+00  0.00000000E+00
  0.00000000E+00  0.00000000E+00  0.00000000E+00
  0.00000000E+00  0.00000000E+00  0.00000000E+00
  0.00000000E+00  0.00000000E+00  0.00000000E+00
  0.00000000E+00  0.00000000E+00  0.00000000E+00
  0.00000000E+00  0.00000000E+00  0.00000000E+00
  0.00000000E+00  0.00000000E+00  0.00000000E+00
  0.00000000E+00  0.00000000E+00  0.00000000E+00
  0.00000000E+00  0.00000000E+00  0.00000000E+00
  0.00000000E+00  0.00000000E+00  0.00000000E+00
  0.00000000E+00  0.00000000E+00  0.00000000E+00
  0.00000000E+00  0.00000000E+00  0.00000000E+00
  0.00000000E+00  0.00000000E+00  0.00000000E+00
  0.00000000E+00  0.00000000E+00  0.00000000E+00
  0.00000000E+00  0.00000000E+00  0.00000000E+00
  0.00000000E+00  0.00000000E+00  0.00000000E+00
  0.00000000E+00  0.00000000E+00  0.00000000E+00
  0.00000000E+00  0.00000000E+00  0.00000000E+00
  0.00000000E+00  0.00000000E+00  0.00000000E+00
  0.00000000E+00  0.00000000E+00  0.00000000E+00
  0.00000000E+00  0.00000000E+00  0.00000000E+00
  0.00000000E+00  0.00000000E+00  0.00000000E+00
  0.00000000E+00  0.00000000E+00  0.00000000E+00
  0.00000000E+00  0.00000000E+00  0.00000000E+00
  0.00000000E+00  0.00000000E+00  0.00000000E+00
  0.00000000E+00  0.00000000E+00  0.00000000E+00
  0.00000000E+00  0.00000000E+00  0.00000000E+00
  0.00000000E+00  0.00000000E+00  0.00000000E+00
  0.00000000E+00  0.00000000E+00  0.00000000E+00
  0.00000000E+00  0.00000000E+00  0.00000000E+00
  0.00000000E+00  0.00000000E+00  0.00000000E+00
  0.00000000E+00  0.00000000E+00  0.00000000E+00
  0.00000000E+00  0.00000000E+00  0.00000000E+00
  0.00000000E+00  0.00000000E+00  0.00000000E+00
  0.00000000E+00  0.00000000E+00  0.00000000E+00
  0.00000000E+00  0.00000000E+00  0.00000000E+00
  0.00000000E+00  0.00000000E+00  0.00000000E+00
  0.00000000E+00  0.00000000E+00  0.00000000E+00
  0.00000000E+00  0.00000000E+00  0.00000000E+00
  0.00000000E+00  0.00000000E+00  0.00000000E+00
  0.00000000E+00  0.00000000E+00  0.00000000E+00
  0.00000000E+00  0.00000000E+00  0.00000000E+00
  0.00000000E+00  0.00000000E+00  0.00000000E+00
  0.00000000E+00  0.00000000E+00  0.00000000E+00
  0.00000000E+00  0.00000000E+00  0.00000000E+00
  0.00000000E+00  0.00000000E+00  0.00000000E+00
  0.00000000E+00  0.00000000E+00  0.00000000E+00
  0.00000000E+00  0.00000000E+00  0.00000000E+00
  0.00000000E+00  0.00000000E+00  0.00000000E+00
  0.00000000E+00  0.00000000E+00  0.00000000E+00
  0.00000000E+00  0.00000000E+00  0.00000000E+00
  0.00000000E+00  0.00000000E+00  0.00000000E+00
  0.00000000E+00  0.00000000E+00  0.00000000E+00
  0.00000000E+00  0.00000000E+00  0.00000000E+00
  0.00000000E+00  0.00000000E+00  0.00000000E+00
  0.00000000E+00  0.00000000E+00  0.00000000E+00
  0.00000000E+00  0.00000000E+00  0.00000000E+00
  0.00000000E+00  0.00000000E+00  0.00000000E+00
  0.00000000E+00  0.00000000E+00  0.00000000E+00
  0.00000000E+00  0.00000000E+00  0.00000000E+00
  0.00000000E+00  0.00000000E+00  0.00000000E+00
  0.00000000E+00  0.00000000E+00  0.00000000E+00
  0.00000000E+00  0.00000000E+00  0.00000000E+00
  0.00000000E+00  0.00000000E+00  0.00000000E+00
  0.00000000E+00  0.00000000E+00  0.00000000E+00
  0.00000000E+00  0.00000000E+00  0.00000000E+00
  0.00000000E+00  0.00000000E+00  0.00000000E+00
  0.00000000E+00  0.00000000E+00  0.00000000E+00
  0.00000000E+00  0.00000000E+00  0.00000000E+00
  0.00000000E+00  0.00000000E+00  0.00000000E+00
  0.00000000E+00  0.00000000E+00  0.00000000E+00
  0.00000000E+00  0.00000000E+00  0.00000000E+00
  0.00000000E+00  0.00000000E+00  0.00000000E+00
  0.00000000E+00  0.00000000E+00  0.00000000E+00
  0.00000000E+00  0.00000000E+00  0.00000000E+00
  0.00000000E+00  0.00000000E+00  0.00000000E+00
  0.00000000E+00  0.00000000E+00  0.00000000E+00
  0.00000000E+00  0.00000000E+00  0.00000000E+00
  0.00000000E+00  0.00000000E+00  0.00000000E+00
  0.00000000E+00  0.00000000E+00  0.00000000E+00
  0.00000000E+00  0.00000000E+00  0.00000000E+00
  0.00000000E+00  0.00000000E+00  0.00000000E+00
  0.00000000E+00  0.00000000E+00  0.00000000E+00
  0.00000000E+00  0.00000000E+00  0.00000000E+00
  0.00000000E+00  0.00000000E+00  0.00000000E+00