Li63 Ta65 O192                          
   1.00000000000000     
    15.0337320000000005   -0.0060940000000000   -0.0057460000000000
     0.9606630000000000   15.0030490000000007   -0.0057500000000000
     0.9606080000000000    0.9007180000000000   14.9759290000000007
   Li   Ta   O 
    63    65   192
Direct
  0.3898258970915123  0.3893323404765212  0.8882432945680350
  0.3901614980527981  0.8885405273512959  0.3906598170957807
  0.3900281524156668  0.8900847896143560  0.8899722289886185
  0.8888175502038962  0.3907008544850399  0.3910428016357130
  0.8900631495714606  0.3899206608981842  0.8900021346743117
  0.8899257989146818  0.8899749192699957  0.3900174997140624
  0.8898310647173133  0.8896094201372478  0.8894234986611593
  0.1385555825684790  0.3881511907838018  0.1390163290246349
  0.1405176150730227  0.3897134153078525  0.6383437461970516
  0.1400073688623564  0.8893706185392247  0.1397004209607644
  0.1393574468868266  0.8896248623100433  0.6401541813273752
  0.6399714294415233  0.3909212476151751  0.1400134238093003
  0.6392523971429185  0.3906359857904107  0.6401205107524248
  0.6402017595470468  0.8900938712811524  0.1396595447503373
  0.6392609191071799  0.8901309912081743  0.6394286536053784
  0.3888372316477415  0.1384097356919014  0.1373367312450782
  0.3925837008809197  0.1397290313349515  0.6399880581875763
  0.3902330865670791  0.6397000286323546  0.1398309085714899
  0.3896982173018415  0.6428895879530643  0.6407064619878682
  0.8895235955604193  0.1399237771708499  0.1396821445801137
  0.8892272250622995  0.1401684728238948  0.6388415770902185
  0.8902296221271584  0.6399640248337093  0.1397103757816254
  0.8899125080011885  0.6395130433165406  0.6392531265769676
  0.1373205864387188  0.1372546812337987  0.3890863571969518
  0.1398853456319813  0.1397648353557273  0.8892222411758439
  0.1413693429101315  0.6377269284303537  0.3928024934809073
  0.1403057628093549  0.6393598184498970  0.8899085170695287
  0.6371703147895929  0.1413967426537610  0.3906600722371039
  0.6401877324340148  0.1395806156945767  0.8894643610952855
  0.6417306685054953  0.6409965352831577  0.3901954926804123
  0.6399472052821622  0.6396123727136143  0.8900794197708848
  0.1393592441569567  0.1396053611435519  0.1394448981366807
  0.1376766496616071  0.1379594471960388  0.6403282629289961
  0.1389367283108456  0.6403181808828080  0.1388824554969119
  0.1406351048270480  0.6366609383803166  0.6364021623952851
  0.6399677811121549  0.1387777215633363  0.1377549261472524
  0.6355407040293031  0.1405696344241463  0.6364564290021022
  0.6392997999538323  0.6390601816869008  0.1401241548535168
  0.6402726493671551  0.6402553025954489  0.6398580150563760
  0.3905349206847362  0.1375181138204482  0.3867203755631223
  0.3892533420479936  0.1407498844032204  0.8880720537196254
  0.3921759065945736  0.6476221767548509  0.3883302560859647
  0.3898105098334881  0.6402985240709640  0.8910133641402140
  0.8883974282966420  0.1399389338445474  0.3906365202329951
  0.8896209880496073  0.1400098191223478  0.8897909976081948
  0.8899780542710047  0.6391063401907573  0.3911828440292595
  0.8900726013140314  0.6399456105022807  0.8897211658346222
  0.1392751992782522  0.3861953701932919  0.3909880822502885
  0.1401396128082979  0.3899882679214528  0.8892453910953577
  0.1404412645541271  0.8879346786056175  0.3897007021282590
  0.1397963502489930  0.8900571699875854  0.8897916796901981
  0.6441483167529753  0.3902101069498372  0.3920419557245935
  0.6399992347631667  0.3907649141712852  0.8893244546124421
  0.6400097932992850  0.8910927839582570  0.3902241489854958
  0.6399793730714975  0.8899080227727794  0.8895911382755344
  0.3883819663723429  0.3887216722701510  0.1377185131344731
  0.3892190137980762  0.3919258237474068  0.6486690489791798
  0.3897942157017980  0.8895752982602332  0.1395036719530864
  0.3913109900888472  0.8894602108435308  0.6392107643798042
  0.8892210941162588  0.3895749985014163  0.1398526921709546
  0.8903849601552096  0.3900963382604132  0.6395634621187938
  0.8899174342125136  0.8898318659737754  0.1399922554400064
  0.8895934866916448  0.8896280898541420  0.6398979107071625
  0.3990441319241071  0.4007171175924427  0.4084475414747146
  0.2477051856789885  0.2468225008726108  0.2474068625015917
  0.2476345237530069  0.2481286764675446  0.7474152249741195
  0.2483698928326703  0.7474793487284899  0.2480685666836280
  0.2479592415794514  0.7482591927621485  0.7482059315634402
  0.7472660133770290  0.2481915949807529  0.2478845185252467
  0.7477523009540192  0.2482940158660085  0.7478998125683205
  0.7485520353674531  0.7483407597611489  0.2481439002044183
  0.7485177132779697  0.7485897714251095  0.7483644074209508
  0.4907255107230739  0.2531324180821599  0.4920403789549610
  0.4970695228757265  0.2492836862544365  0.9926146906909494
  0.4999371685949754  0.7490126713272076  0.4986553133359948
  0.4982076473314478  0.7482235113501687  0.9982497069402498
  0.9962156413530039  0.2472769214843638  0.4980457950250923
  0.9977529357930166  0.2480767370527275  0.9977858821016312
  0.9986638729906261  0.7476157181621019  0.4979736501755738
  0.9980579800391070  0.7481268154618590  0.9978786875426593
  0.2539044192650195  0.4906073155389095  0.4950356992640224
  0.2481404715064528  0.4978298860595558  0.9978039895891868
  0.2492731298634183  0.9919599794692502  0.4968943524844747
  0.2480678936508696  0.9979569560337396  0.9976374746317163
  0.7485012840577596  0.4988510214532980  0.4992187378410406
  0.7483641374996850  0.4982785515603894  0.9982712363387520
  0.7475263490376278  0.9986754182096078  0.4979694513663304
  0.7481563131539062  0.9980043228003552  0.9977831930273524
  0.4964244734544820  0.4967910160719669  0.2485175220231994
  0.4985779722183494  0.5000971091860364  0.7488785951478079
  0.4980943884117792  0.9974045592981469  0.2475185067948900
  0.4979632843675859  0.9985685056417992  0.7480500998701487
  0.9955700179099978  0.4971384139588935  0.2490749472508611
  0.9984180414408002  0.4979081277945738  0.7479056590416704
  0.9978775144514955  0.9977887026301104  0.2480453036680004
  0.9976349760734067  0.9979813008602179  0.7481064168150908
  0.4995791648437233  0.5029196418459705  0.5021319995781184
  0.4983225564615879  0.4980611940316138  0.9984789159300576
  0.4981507940902219  0.0000326934763777  0.4975630500052333
  0.4982793097836833  0.9980315035990657  0.9974853627439586
  0.9999884384687974  0.4973207784030578  0.4985695182548042
  0.9982549615198053  0.4980399640312712  0.9980154068412617
  0.9976236162178367  0.9972049478790481  0.4982438154622955
  0.9980001017519982  0.9979710199603034  0.9979169810128212
  0.2434590029560937  0.4980570085394760  0.2473859005697250
  0.2482397468679238  0.4982362716004403  0.7470864165348416
  0.2478781167206918  0.9972931698533856  0.2478017673561652
  0.2483552011721244  0.9979824421298957  0.7477721863879339
  0.7463181545731885  0.4991398770989619  0.2479612244628626
  0.7489137532359109  0.4983578750391402  0.7482404171781241
  0.7478033544534597  0.9983253947409594  0.2480133809619005
  0.7479611973429670  0.9988332400010833  0.7475947963566654
  0.4984110259892702  0.2467535390911948  0.2404266835646425
  0.4999137509857334  0.2477064638864661  0.7430120077110303
  0.4987141836935365  0.7477347661426634  0.2478971410477371
  0.4985804071164637  0.7484725501196152  0.7490659883780850
  0.9973582062217616  0.2477105751254314  0.2480608129036455
  0.9976103118891189  0.2480256571181130  0.7477947908364442
  0.9985687107836227  0.7476901962541191  0.2483039505963660
  0.9987189544105419  0.7476496240231825  0.7479742451599520
  0.2463888949427755  0.2384506575012395  0.4989122272283097
  0.2477488584367862  0.2476910807786794  0.9975479731224226
  0.2476518411372197  0.7425702755351224  0.5002607125444243
  0.2481903568158330  0.7478572481307424  0.9978450762968194
  0.7447044776943201  0.2490108814237431  0.4978243699688818
  0.7478657011190109  0.2483501580092806  0.9977477465016875
  0.7484395613744184  0.7492420378475870  0.4982900740679455
  0.7482034576085539  0.7481594078903768  0.9982866902056671
  0.2071267327567341  0.3669803151525670  0.2702768292038868
  0.2075449248808425  0.3684696008853905  0.7699517981208643
  0.2077149353405190  0.8680106649116937  0.2693166930448214
  0.2080939864509546  0.8683771448843345  0.7713037653695380
  0.7085840435568116  0.3685367703035354  0.2704734143993264
  0.7085470803185103  0.3688416380836372  0.7707285638591372
  0.7082231503516212  0.8686852026336211  0.2704921698206633
  0.7084145493585936  0.8688815529609073  0.7707419601373289
  0.4577412641122223  0.3686702656649672  0.0204743273812653
  0.4556696643797338  0.3747995821281123  0.5363245817873974
  0.4579824799311893  0.8683578511391801  0.0211504305891523
  0.4590876836107896  0.8697417890724140  0.5204445384800351
  0.9577975059634483  0.3684466009290830  0.0204130214139511
  0.9586735038525731  0.3681341125656417  0.5207304835614437
  0.9578046359075216  0.8683484739798359  0.0206251344707127
  0.9576683042212935  0.8682042775691698  0.5205601351962130
  0.2075397645370387  0.1180650282191849  0.0203152372012738
  0.2058822500998545  0.1149299404294908  0.5203926403608961
  0.2076920029260663  0.6181051819267296  0.0203768330939837
  0.2121703321217936  0.6196352399362439  0.5189026746417369
  0.7080192756397281  0.1185325634195991  0.0199454905306311
  0.7066593763466642  0.1191516106012784  0.5202271874036768
  0.7082179870405909  0.6186619285054320  0.0209131012787225
  0.7098877474361771  0.6199280733903763  0.5210937092322467
  0.4578189908139905  0.1178294533958137  0.2683803058918457
  0.4578985655343573  0.1184420627194456  0.7714173885773405
  0.4585104511335203  0.6172028362952489  0.2718558713584187
  0.4585264564064815  0.6200991390951458  0.7741503297956953
  0.9575759602354026  0.1181078281287427  0.2706036239858136
  0.9578299615414636  0.1181307426867946  0.7710415748579678
  0.9581242526392728  0.6181839776400153  0.2707808989811014
  0.9585467773616898  0.6182436461469223  0.7707114416757861
  0.2705002570632402  0.2049413136512399  0.3672172986087645
  0.2689211553138335  0.2076177877642067  0.8682566719606584
  0.2717318988703070  0.7098575791698210  0.3677213331888396
  0.2705274400395510  0.7075804880605432  0.8687648450753471
  0.7686397945839829  0.2083706682381248  0.3682920921076516
  0.7708106070388538  0.2084268686711752  0.8683209471866036
  0.7711177442440942  0.7087571989703036  0.3684445783509389
  0.7709948685605994  0.7083358046011199  0.8687889749279378
  0.0198347572933741  0.2078933696003631  0.1181732778699356
  0.0188535961428471  0.2070290254276514  0.6185490097871735
  0.0204786855951866  0.7078874504871564  0.1183663623825879
  0.0212540075438454  0.7078062828372964  0.6185949357541176
  0.5201898073569637  0.2071805768673229  0.1156938407831518
  0.5175433837160099  0.2113463229261185  0.6201727083210926
  0.5206848155536861  0.7074476389177136  0.1187766929407843
  0.5217641209386059  0.7102087342675105  0.6197601858890778
  0.2708366616812015  0.4576479418138533  0.1185222197530464
  0.2729414067428593  0.4569015235075256  0.6180693206051942
  0.2704481585515452  0.9575354058597867  0.1178819141103489
  0.2707916319176249  0.9571700789470725  0.6186609196908819
  0.7712743225020944  0.4581779797634837  0.1184081610107341
  0.7725636656280699  0.4586210057462665  0.6195047641020608
  0.7707678501463135  0.9582447774856959  0.1180820961503031
  0.7704196597048849  0.9587792380121698  0.6183637219878761
  0.0209456065282225  0.4573437755554650  0.3685090336842762
  0.0212820942563212  0.4580099396008919  0.8684512050819606
  0.0203419083656584  0.9576755973811970  0.3682631037599577
  0.0202658353683915  0.9576467418758483  0.8684724755295292
  0.5283929126909328  0.4538835235065832  0.3712751998879185
  0.5212386205875390  0.4593274680956725  0.8698794122506825
  0.5209873131213740  0.9590457313923437  0.3678507621534024
  0.5207172005268248  0.9577212738312824  0.8685290660091525
  0.3670576843717583  0.2699505147530346  0.2047506890026582
  0.3673640807526581  0.2717941702763156  0.7102385536809166
  0.3688859315728905  0.7696192785656422  0.2077282862325163
  0.3686537812143484  0.7704783869473033  0.7089054541336495
  0.8678691668137475  0.2700845097739375  0.2078466814289186
  0.8682063212536377  0.2709362117220948  0.7078052974782878
  0.8688975552799505  0.7706441075752295  0.2081395645489721
  0.8689060078552657  0.7706921702575329  0.7083347428059596
  0.1170889091852416  0.2671387409507702  0.4581021454102441
  0.1178766352646790  0.2707839629631366  0.9577474075211398
  0.1185704646638968  0.7709385713549679  0.4581720324033469
  0.1183370498027472  0.7707819588899980  0.9581813531300511
  0.6150669152952730  0.2729991477251232  0.4577276444218157
  0.6185673897390416  0.2711491177850220  0.9572736912330413
  0.6202182442098660  0.7738411026930692  0.4582237577021289
  0.6186379663724040  0.7707637738053137  0.9585211348889331
  0.3682596954605870  0.0199281025694660  0.4573098465094674
  0.3683539618633063  0.0206114723366895  0.9577188641228958
  0.3740238501142201  0.5354906125133709  0.4530390594291518
  0.3684542126424546  0.5210131989851803  0.9591230950707654
  0.8679657485557257  0.0209733991019121  0.4580234284793860
  0.8684573613607824  0.0206895629212696  0.9577583580402518
  0.8693315446472454  0.5204894289748765  0.4585307425859426
  0.8687954327567056  0.5208362331804821  0.9581582048448567
  0.1180711827827778  0.0202640742822595  0.2076981514464435
  0.1182685844100533  0.0199942111303955  0.7081937332433981
  0.1177666767280527  0.5201774022553067  0.2080591978976187
  0.1189382368559322  0.5204581936818471  0.7075893219897438
  0.6185407633956999  0.0201445735744485  0.2071443266045776
  0.6184357740170370  0.0212856083978394  0.7080609721941187
  0.6192560167250747  0.5200434221367587  0.2092682636712411
  0.6194347370364639  0.5217428351717857  0.7097151276345954
  0.2067752638559313  0.2696595805318012  0.1178514186769917
  0.2076209490174179  0.2692498029214150  0.6176816017755300
  0.2078186892761309  0.7696747270128270  0.1181582493046420
  0.2079531766963711  0.7710842042419870  0.6194759009686024
  0.7074097645995820  0.2707416543483063  0.1180693748446515
  0.7069512998749303  0.2711747953820236  0.6187203109851112
  0.7084289166857403  0.7712110525620659  0.1184740126601085
  0.7088397688534798  0.7714121143921986  0.6188975026080854
  0.4518007713114116  0.2702036347133614  0.3619027817274656
  0.4573269824789534  0.2701550115479492  0.8681821675471539
  0.4589072133981276  0.7709013378329743  0.3680373255534519
  0.4582532679544826  0.7718591664822441  0.8694820608709719
  0.9571463885354916  0.2706897097215446  0.3681400342735088
  0.9575612810373357  0.2704562032514843  0.8683126196806796
  0.9585812212062450  0.7707265031642621  0.3682938523642534
  0.9580469278836716  0.7702168798121178  0.8684876558201395
  0.2074555111210046  0.0198181295700053  0.3677332598877854
  0.2078472927224553  0.0203043842311885  0.8682392648513897
  0.2066812912078433  0.5192903732117244  0.3684768623784223
  0.2085044816121524  0.5199215501732724  0.8681872890526989
  0.7078278400333602  0.0212844688971643  0.3680332005479912
  0.7081675974691493  0.0208240589362632  0.8682018040920028
  0.7097645524822980  0.5215098385220429  0.3688921484774923
  0.7087588053605103  0.5206794534552515  0.8689424539624895
  0.4578606572731232  0.0199795888981740  0.1178350181903625
  0.4584451631994426  0.0208234945844907  0.6189121405605320
  0.4586920700208879  0.5210012721007686  0.1194503089208894
  0.4592349811445118  0.5280472061151542  0.6225170550666164
  0.9578774457005466  0.0203678129119993  0.1182686300310749
  0.9577259891206893  0.0202294676118626  0.6186475630621828
  0.9584630651939534  0.5206424718987819  0.1183422122652829
  0.9584216072678444  0.5202044079418400  0.6189515197463891
  0.1176445810179558  0.2071744195759067  0.2700633942186954
  0.1176599785350589  0.2073435580766088  0.7700135177709768
  0.1188530101903496  0.7071255061513568  0.2706454941585363
  0.1186410173503418  0.7080075603226987  0.7717121526547999
  0.6172586825616975  0.2082975935267584  0.2697454761126181
  0.6190651602527524  0.2079607443500748  0.7711895409080896
  0.6190775303803804  0.7079678493022001  0.2703694360668223
  0.6190435946710764  0.7087523972237761  0.7715200326814795
  0.3678463901576379  0.2075068847790504  0.0198058670273724
  0.3678268105070543  0.2017000532370048  0.5224029759250826
  0.3684416808218458  0.7079369384845222  0.0207904865274671
  0.3703267481831318  0.7113394353926097  0.5211909837048836
  0.8681038057134174  0.2079741945209079  0.0204417566970108
  0.8661707649569337  0.2087843462354328  0.5197482622958489
  0.8685238158430337  0.7079900237914600  0.0208331452324018
  0.8689858570706264  0.7087207342420783  0.5205280839270046
  0.1185153521737945  0.4577350317492801  0.0208628831096718
  0.1191166019857164  0.4588044191826484  0.5210865430619123
  0.1182783037262141  0.9577755372229504  0.0203145600377752
  0.1177098091301403  0.9573778341545065  0.5208620497755732
  0.6187914264113843  0.4584040379117909  0.0213779092840696
  0.6212997878999715  0.4605180512164679  0.5237764145588457
  0.6186531590433901  0.9578998589182390  0.0203181351133566
  0.6187434606328495  0.9586722242989865  0.5201388961125559
  0.3660884134160654  0.4535612847961374  0.2754790494493875
  0.3686636616975321  0.4588111117631897  0.7710040568798817
  0.3683909122855056  0.9574382040337568  0.2702030788900416
  0.3684411943817238  0.9581164335797823  0.7709638608383074
  0.8683836610584734  0.4578919384244173  0.2705345120066909
  0.8692112922421984  0.4581054780892089  0.7716454857230914
  0.8682350027600094  0.9579772362268244  0.2702902193356991
  0.8682674518076468  0.9579312587797091  0.7704719488198108
  0.2699714136460045  0.1175084929637293  0.2067981714706946
  0.2708327438871407  0.1181359145954914  0.7080059209810017
  0.2714038897288233  0.6171255818375698  0.2083044058562962
  0.2706682780039174  0.6186258992622555  0.7080678156626448
  0.7701644691506644  0.1185367944864311  0.2075126760635300
  0.7714458848485677  0.1188096344672189  0.7080085602678565
  0.7711016196324678  0.6189155669475852  0.2077405619928783
  0.7712443378881702  0.6188916291069546  0.7086309377769240
  0.0188272405146890  0.1177535976685817  0.4578397121354243
  0.0205070277091082  0.1183111567782191  0.9579581888088740
  0.0210533655266758  0.6185961394684512  0.4582713837727823
  0.0208775199118918  0.6183870825167403  0.9581193183100680
  0.5200310600660103  0.1192117583853332  0.4582459278795241
  0.5212172838814837  0.1180698319427407  0.9577364271435442
  0.5267259035611076  0.6229391502503745  0.4591157368566101
  0.5206399269358570  0.6187583702623130  0.9588505360390371
  0.2678947267673095  0.3610790709023490  0.4538385497147530
  0.2706481449402389  0.3681751138590954  0.9579967647974641
  0.2698600154083906  0.8678898164518856  0.4573051407367572
  0.2706245882130460  0.8682053784833528  0.9579472421915867
  0.7696389410001601  0.3689393971807959  0.4579852622519667
  0.7708412667147684  0.3686491387195474  0.9582414235028551
  0.7716721550416779  0.8695707361980567  0.4579824002487527
  0.7708161753518894  0.8685086633127668  0.9578728343373513
  0.0202296654707439  0.3680155776756209  0.2077889662821306
  0.0209290928205306  0.3681530748787551  0.7079670640134736
  0.0207037489896749  0.8680868655505165  0.2080201244784092
  0.0207064852979073  0.8681519812544991  0.7082989057376849
  0.5198330831997282  0.3687916723045745  0.2055981254991224
  0.5207750930405837  0.3704507685055134  0.7110425362677333
  0.5209576900573367  0.8679145651047051  0.2075723649444896
  0.5207200928926596  0.8689702818535068  0.7088749249470538
 
  0.00000000E+00  0.00000000E+00  0.00000000E+00
  0.00000000E+00  0.00000000E+00  0.00000000E+00
  0.00000000E+00  0.00000000E+00  0.00000000E+00
  0.00000000E+00  0.00000000E+00  0.00000000E+00
  0.00000000E+00  0.00000000E+00  0.00000000E+00
  0.00000000E+00  0.00000000E+00  0.00000000E+00
  0.00000000E+00  0.00000000E+00  0.00000000E+00
  0.00000000E+00  0.00000000E+00  0.00000000E+00
  0.00000000E+00  0.00000000E+00  0.00000000E+00
  0.00000000E+00  0.00000000E+00  0.00000000E+00
  0.00000000E+00  0.00000000E+00  0.00000000E+00
  0.00000000E+00  0.00000000E+00  0.00000000E+00
  0.00000000E+00  0.00000000E+00  0.00000000E+00
  0.00000000E+00  0.00000000E+00  0.00000000E+00
  0.00000000E+00  0.00000000E+00  0.00000000E+00
  0.00000000E+00  0.00000000E+00  0.00000000E+00
  0.00000000E+00  0.00000000E+00  0.00000000E+00
  0.00000000E+00  0.00000000E+00  0.00000000E+00
  0.00000000E+00  0.00000000E+00  0.00000000E+00
  0.00000000E+00  0.00000000E+00  0.00000000E+00
  0.00000000E+00  0.00000000E+00  0.00000000E+00
  0.00000000E+00  0.00000000E+00  0.00000000E+00
  0.00000000E+00  0.00000000E+00  0.00000000E+00
  0.00000000E+00  0.00000000E+00  0.00000000E+00
  0.00000000E+00  0.00000000E+00  0.00000000E+00
  0.00000000E+00  0.00000000E+00  0.00000000E+00
  0.00000000E+00  0.00000000E+00  0.00000000E+00
  0.00000000E+00  0.00000000E+00  0.00000000E+00
  0.00000000E+00  0.00000000E+00  0.00000000E+00
  0.00000000E+00  0.00000000E+00  0.00000000E+00
  0.00000000E+00  0.00000000E+00  0.00000000E+00
  0.00000000E+00  0.00000000E+00  0.00000000E+00
  0.00000000E+00  0.00000000E+00  0.00000000E+00
  0.00000000E+00  0.00000000E+00  0.00000000E+00
  0.00000000E+00  0.00000000E+00  0.00000000E+00
  0.00000000E+00  0.00000000E+00  0.00000000E+00
  0.00000000E+00  0.00000000E+00  0.00000000E+00
  0.00000000E+00  0.00000000E+00  0.00000000E+00
  0.00000000E+00  0.00000000E+00  0.00000000E+00
  0.00000000E+00  0.00000000E+00  0.00000000E+00
  0.00000000E+00  0.00000000E+00  0.00000000E+00
  0.00000000E+00  0.00000000E+00  0.00000000E+00
  0.00000000E+00  0.00000000E+00  0.00000000E+00
  0.00000000E+00  0.00000000E+00  0.00000000E+00
  0.00000000E+00  0.00000000E+00  0.00000000E+00
  0.00000000E+00  0.00000000E+00  0.00000000E+00
  0.00000000E+00  0.00000000E+00  0.00000000E+00
  0.00000000E+00  0.00000000E+00  0.00000000E+00
  0.00000000E+00  0.00000000E+00  0.00000000E+00
  0.00000000E+00  0.00000000E+00  0.00000000E+00
  0.00000000E+00  0.00000000E+00  0.00000000E+00
  0.00000000E+00  0.00000000E+00  0.00000000E+00
  0.00000000E+00  0.00000000E+00  0.00000000E+00
  0.00000000E+00  0.00000000E+00  0.00000000E+00
  0.00000000E+00  0.00000000E+00  0.00000000E+00
  0.00000000E+00  0.00000000E+00  0.00000000E+00
  0.00000000E+00  0.00000000E+00  0.00000000E+00
  0.00000000E+00  0.00000000E+00  0.00000000E+00
  0.00000000E+00  0.00000000E+00  0.00000000E+00
  0.00000000E+00  0.00000000E+00  0.00000000E+00
  0.00000000E+00  0.00000000E+00  0.00000000E+00
  0.00000000E+00  0.00000000E+00  0.00000000E+00
  0.00000000E+00  0.00000000E+00  0.00000000E+00
  0.00000000E+00  0.00000000E+00  0.00000000E+00
  0.00000000E+00  0.00000000E+00  0.00000000E+00
  0.00000000E+00  0.00000000E+00  0.00000000E+00
  0.00000000E+00  0.00000000E+00  0.00000000E+00
  0.00000000E+00  0.00000000E+00  0.00000000E+00
  0.00000000E+00  0.00000000E+00  0.00000000E+00
  0.00000000E+00  0.00000000E+00  0.00000000E+00
  0.00000000E+00  0.00000000E+00  0.00000000E+00
  0.00000000E+00  0.00000000E+00  0.00000000E+00
  0.00000000E+00  0.00000000E+00  0.00000000E+00
  0.00000000E+00  0.00000000E+00  0.00000000E+00
  0.00000000E+00  0.00000000E+00  0.00000000E+00
  0.00000000E+00  0.00000000E+00  0.00000000E+00
  0.00000000E+00  0.00000000E+00  0.00000000E+00
  0.00000000E+00  0.00000000E+00  0.00000000E+00
  0.00000000E+00  0.00000000E+00  0.00000000E+00
  0.00000000E+00  0.00000000E+00  0.00000000E+00
  0.00000000E+00  0.00000000E+00  0.00000000E+00
  0.00000000E+00  0.00000000E+00  0.00000000E+00
  0.00000000E+00  0.00000000E+00  0.00000000E+00
  0.00000000E+00  0.00000000E+00  0.00000000E+00
  0.00000000E+00  0.00000000E+00  0.00000000E+00
  0.00000000E+00  0.00000000E+00  0.00000000E+00
  0.00000000E+00  0.00000000E+00  0.00000000E+00
  0.00000000E+00  0.00000000E+00  0.00000000E+00
  0.00000000E+00  0.00000000E+00  0.00000000E+00
  0.00000000E+00  0.00000000E+00  0.00000000E+00
  0.00000000E+00  0.00000000E+00  0.00000000E+00
  0.00000000E+00  0.00000000E+00  0.00000000E+00
  0.00000000E+00  0.00000000E+00  0.00000000E+00
  0.00000000E+00  0.00000000E+00  0.00000000E+00
  0.00000000E+00  0.00000000E+00  0.00000000E+00
  0.00000000E+00  0.00000000E+00  0.00000000E+00
  0.00000000E+00  0.00000000E+00  0.00000000E+00
  0.00000000E+00  0.00000000E+00  0.00000000E+00
  0.00000000E+00  0.00000000E+00  0.00000000E+00
  0.00000000E+00  0.00000000E+00  0.00000000E+00
  0.00000000E+00  0.00000000E+00  0.00000000E+00
  0.00000000E+00  0.00000000E+00  0.00000000E+00
  0.00000000E+00  0.00000000E+00  0.00000000E+00
  0.00000000E+00  0.00000000E+00  0.00000000E+00
  0.00000000E+00  0.00000000E+00  0.00000000E+00
  0.00000000E+00  0.00000000E+00  0.00000000E+00
  0.00000000E+00  0.00000000E+00  0.00000000E+00
  0.00000000E+00  0.00000000E+00  0.00000000E+00
  0.00000000E+00  0.00000000E+00  0.00000000E+00
  0.00000000E+00  0.00000000E+00  0.00000000E+00
  0.00000000E+00  0.00000000E+00  0.00000000E+00
  0.00000000E+00  0.00000000E+00  0.00000000E+00
  0.00000000E+00  0.00000000E+00  0.00000000E+00
  0.00000000E+00  0.00000000E+00  0.00000000E+00
  0.00000000E+00  0.00000000E+00  0.00000000E+00
  0.00000000E+00  0.00000000E+00  0.00000000E+00
  0.00000000E+00  0.00000000E+00  0.00000000E+00
  0.00000000E+00  0.00000000E+00  0.00000000E+00
  0.00000000E+00  0.00000000E+00  0.00000000E+00
  0.00000000E+00  0.00000000E+00  0.00000000E+00
  0.00000000E+00  0.00000000E+00  0.00000000E+00
  0.00000000E+00  0.00000000E+00  0.00000000E+00
  0.00000000E+00  0.00000000E+00  0.00000000E+00
  0.00000000E+00  0.00000000E+00  0.00000000E+00
  0.00000000E+00  0.00000000E+00  0.00000000E+00
  0.00000000E+00  0.00000000E+00  0.00000000E+00
  0.00000000E+00  0.00000000E+00  0.00000000E+00
  0.00000000E+00  0.00000000E+00  0.00000000E+00
  0.00000000E+00  0.00000000E+00  0.00000000E+00
  0.00000000E+00  0.00000000E+00  0.00000000E+00
  0.00000000E+00  0.00000000E+00  0.00000000E+00
  0.00000000E+00  0.00000000E+00  0.00000000E+00
  0.00000000E+00  0.00000000E+00  0.00000000E+00
  0.00000000E+00  0.00000000E+00  0.00000000E+00
  0.00000000E+00  0.00000000E+00  0.00000000E+00
  0.00000000E+00  0.00000000E+00  0.00000000E+00
  0.00000000E+00  0.00000000E+00  0.00000000E+00
  0.00000000E+00  0.00000000E+00  0.00000000E+00
  0.00000000E+00  0.00000000E+00  0.00000000E+00
  0.00000000E+00  0.00000000E+00  0.00000000E+00
  0.00000000E+00  0.00000000E+00  0.00000000E+00
  0.00000000E+00  0.00000000E+00  0.00000000E+00
  0.00000000E+00  0.00000000E+00  0.00000000E+00
  0.00000000E+00  0.00000000E+00  0.00000000E+00
  0.00000000E+00  0.00000000E+00  0.00000000E+00
  0.00000000E+00  0.00000000E+00  0.00000000E+00
  0.00000000E+00  0.00000000E+00  0.00000000E+00
  0.00000000E+00  0.00000000E+00  0.00000000E+00
  0.00000000E+00  0.00000000E+00  0.00000000E+00
  0.00000000E+00  0.00000000E+00  0.00000000E+00
  0.00000000E+00  0.00000000E+00  0.00000000E+00
  0.00000000E+00  0.00000000E+00  0.00000000E+00
  0.00000000E+00  0.00000000E+00  0.00000000E+00
  0.00000000E+00  0.00000000E+00  0.00000000E+00
  0.00000000E+00  0.00000000E+00  0.00000000E+00
  0.00000000E+00  0.00000000E+00  0.00000000E+00
  0.00000000E+00  0.00000000E+00  0.00000000E+00
  0.00000000E+00  0.00000000E+00  0.00000000E+00
  0.00000000E+00  0.00000000E+00  0.00000000E+00
  0.00000000E+00  0.00000000E+00  0.00000000E+00
  0.00000000E+00  0.00000000E+00  0.00000000E+00
  0.00000000E+00  0.00000000E+00  0.00000000E+00
  0.00000000E+00  0.00000000E+00  0.00000000E+00
  0.00000000E+00  0.00000000E+00  0.00000000E+00
  0.00000000E+00  0.00000000E+00  0.00000000E+00
  0.00000000E+00  0.00000000E+00  0.00000000E+00
  0.00000000E+00  0.00000000E+00  0.00000000E+00
  0.00000000E+00  0.00000000E+00  0.00000000E+00
  0.00000000E+00  0.00000000E+00  0.00000000E+00
  0.00000000E+00  0.00000000E+00  0.00000000E+00
  0.00000000E+00  0.00000000E+00  0.00000000E+00
  0.00000000E+00  0.00000000E+00  0.00000000E+00
  0.00000000E+00  0.00000000E+00  0.00000000E+00
  0.00000000E+00  0.00000000E+00  0.00000000E+00
  0.00000000E+00  0.00000000E+00  0.00000000E+00
  0.00000000E+00  0.00000000E+00  0.00000000E+00
  0.00000000E+00  0.00000000E+00  0.00000000E+00
  0.00000000E+00  0.00000000E+00  0.00000000E+00
  0.00000000E+00  0.00000000E+00  0.00000000E+00
  0.00000000E+00  0.00000000E+00  0.00000000E+00
  0.00000000E+00  0.00000000E+00  0.00000000E+00
  0.00000000E+00  0.00000000E+00  0.00000000E+00
  0.00000000E+00  0.00000000E+00  0.00000000E+00
  0.00000000E+00  0.00000000E+00  0.00000000E+00
  0.00000000E+00  0.00000000E+00  0.00000000E+00
  0.00000000E+00  0.00000000E+00  0.00000000E+00
  0.00000000E+00  0.00000000E+00  0.00000000E+00
  0.00000000E+00  0.00000000E+00  0.00000000E+00
  0.00000000E+00  0.00000000E+00  0.00000000E+00
  0.00000000E+00  0.00000000E+00  0.00000000E+00
  0.00000000E+00  0.00000000E+00  0.00000000E+00
  0.00000000E+00  0.00000000E+00  0.00000000E+00
  0.00000000E+00  0.00000000E+00  0.00000000E+00
  0.00000000E+00  0.00000000E+00  0.00000000E+00
  0.00000000E+00  0.00000000E+00  0.00000000E+00
  0.00000000E+00  0.00000000E+00  0.00000000E+00
  0.00000000E+00  0.00000000E+00  0.00000000E+00
  0.00000000E+00  0.00000000E+00  0.00000000E+00
  0.00000000E+00  0.00000000E+00  0.00000000E+00
  0.00000000E+00  0.00000000E+00  0.00000000E+00
  0.00000000E+00  0.00000000E+00  0.00000000E+00
  0.00000000E+00  0.00000000E+00  0.00000000E+00
  0.00000000E+00  0.00000000E+00  0.00000000E+00
  0.00000000E+00  0.00000000E+00  0.00000000E+00
  0.00000000E+00  0.00000000E+00  0.00000000E+00
  0.00000000E+00  0.00000000E+00  0.00000000E+00
  0.00000000E+00  0.00000000E+00  0.00000000E+00