Li63 Nb65 O192                          
   1.00000000000000     
    15.1469600000000000   -0.0012470000000000   -0.0011610000000000
     1.0576070000000000   15.1097420000000007   -0.0009680000000000
     1.0576360000000000    0.9859670000000000   15.0777149999999995
   Li   Nb   O 
    63    65   192
Direct
  0.2485301061677063  0.2489724538836811  0.2489734681179598
  0.2490079944388768  0.2500339716291293  0.7502577110895103
  0.2501938495920015  0.7502321699320973  0.2499659636548444
  0.2495550523548928  0.7502857629152473  0.7506482350467110
  0.7507429290662841  0.2514386963979049  0.2498990417388356
  0.7503447935223804  0.2500427164434527  0.7502648241276191
  0.7503800010444195  0.7502474876101601  0.2500644782737353
  0.7502465846584698  0.7501143380098583  0.7506294366330195
  0.0004079210677688  0.2500652412498567  0.0003129245363453
  0.9984068409097233  0.2505082932063445  0.5000693011396322
  0.0000832678260210  0.7500830970376811  0.0000839886394459
  0.0003128679968114  0.7504076234669910  0.5000659731117736
  0.5005087470956582  0.2500681057034555  0.9984069053481548
  0.5000653875077958  0.7503123530594351  0.0004086317570113
  0.5000685443799995  0.7484062948575172  0.5005090804571424
  0.2499655250232848  0.0001928275909222  0.0002335042053190
  0.2489735268732716  0.9985298463890686  0.4989738718335843
  0.2500639989562856  0.5003789094878002  0.0002488569258219
  0.2498990477175767  0.5007425047988505  0.5014399553550035
  0.7506482850596754  0.9995544026822074  0.0002856315750535
  0.7502569304273266  0.9990088061866089  0.5000350755420158
  0.7506286947462968  0.5002460139038050  0.0001152158795605
  0.7502651854814459  0.5003446973689805  0.5000432938750805
  0.0002328552598101  0.9999654956648953  0.2501934828217500
  0.0002481323505350  0.0000632211127254  0.7503803147690888
  0.0002854962658958  0.5006475631691742  0.2495553934658616
  0.0001145742003814  0.5006287006067467  0.7502474234689629
  0.4989735424595381  0.9989729030607108  0.2485308144101026
  0.5014394164082887  0.9998986987164500  0.7507433468309515
  0.5000342232854607  0.5002563812997636  0.2490087869569706
  0.5000426361264303  0.5002643519934864  0.7503456141109837
  0.0002595088526647  0.0000884134713246  0.0002249113896582
  0.0001330994457973  0.0000719912013025  0.4999539153365262
  0.0001792296092376  0.5003155211637988  0.0001106603580538
  0.9993289548575603  0.4998511279333329  0.5007253065476789
  0.5000213393362927  0.0001996206545769  0.9993299801247986
  0.4995145779913699  0.9984012581461243  0.4983675447301934
  0.4998187116563741  0.5005617844551864  0.0005944344754312
  0.5017587920305644  0.5050281205969256  0.4999775832124769
  0.2500592797323051  0.0000592530786108  0.2500581503251880
  0.2486932230761951  0.9983574062619738  0.7515086054544469
  0.2483571501581565  0.5015089743277983  0.2486923958085825
  0.2497161195182400  0.4993362152138801  0.7492185755008762
  0.7515094963649247  0.9986931239188763  0.2483565918707384
  0.7492196651499512  0.9997167403489868  0.7493358308844265
  0.7493362759713875  0.4992199615939299  0.2497154877445524
  0.7505836547330418  0.5005834989168605  0.7505833682489396
  0.9993298810810387  0.2500208309524439  0.2501991240255137
  0.0005946170149542  0.2498186673219109  0.7505618376125227
  0.0002253228171156  0.7502595333138515  0.2500879953258206
  0.0001107130965465  0.7501792020464038  0.7503163000039450
  0.4983685548362331  0.2495149658731108  0.2484005820535486
  0.4999779489859435  0.2517593715981477  0.7550271672510860
  0.4999545765782543  0.7501329605792506  0.2500714078711965
  0.5007257523881279  0.7493289203260360  0.7498509825751540
  0.2500720992961334  0.2499545375951229  0.0001321783713735
  0.2484000912481079  0.2483688219187883  0.4995136143439680
  0.2500885123582393  0.7502257982184375  0.0002586897161265
  0.2501998791650522  0.7493301585181698  0.5000207117349049
  0.7498512274092946  0.2507262486809338  0.9993280147606285
  0.7550265568115435  0.2499778030156889  0.5017585282776764
  0.7503158847553664  0.7501108228255475  0.0001795214888602
  0.7505622052179675  0.7505949868452717  0.4998180013949920
  0.5102125619225930  0.2602136157904553  0.5102135113557154
  0.1087495242418299  0.1088000729183989  0.1088283787705606
  0.1083350425358134  0.1087567188822618  0.6088943852903057
  0.1086169777166432  0.6089485390248655  0.1085170706192429
  0.1086267464540498  0.6092018237646855  0.6088214877720972
  0.6080456217181549  0.1096913258434000  0.1048035928661406
  0.6083730306263035  0.1064123068227403  0.6061631317842213
  0.6087725719472488  0.6089306609854859  0.1087737357037994
  0.6105874019420625  0.6074340735988955  0.6088228603476011
  0.3585559014185833  0.1085531753507638  0.3585539729891067
  0.3587511803332504  0.1086802859720137  0.8590506618496860
  0.3586831675503603  0.6090503726061200  0.3587491721946634
  0.3587378519839461  0.6088498097074151  0.8588716071529916
  0.8590529062376149  0.1087481739359077  0.3586809714463470
  0.8588731520251187  0.1087359376053101  0.8588497741752903
  0.8588514888816405  0.6088700669166087  0.3587370787387272
  0.8589442086696337  0.6089410682833289  0.8589431115406825
  0.1048064287224335  0.3580426109907080  0.3596912807588595
  0.1087752083486393  0.3587699892622922  0.8589312492145851
  0.1088292826281858  0.8587466361522402  0.3588004625075101
  0.1085193016182942  0.8586141290881955  0.8589493099195167
  0.6061658347926766  0.3583717464765428  0.3564120393106691
  0.6088235156397985  0.3605850086735529  0.8574343345716144
  0.6088959202928308  0.8583326437667651  0.3587576689471348
  0.6088231333565872  0.8586237862149559  0.8592027609494011
  0.3587596593413735  0.3588933236104523  0.1083333102945048
  0.3564148202522546  0.3561603790167496  0.6083704763909381
  0.3588021870018423  0.8588265532177104  0.1087478357831699
  0.3596936608366903  0.8548018677471347  0.6080431783163220
  0.8592043605427975  0.3588205419669706  0.1086249269210597
  0.8574362727031684  0.3588205054766931  0.6105855508936742
  0.8589510170702255  0.8585163628685422  0.1086146240264299
  0.8589327320475633  0.8587724431880801  0.6087716871657278
  0.3516534820890485  0.3606638243141518  0.3565798701997238
  0.3584309122048310  0.3589754159968592  0.8587848977684445
  0.3588068929306871  0.8586766700205999  0.3586682609249792
  0.3588454380161821  0.8587236256182678  0.8589893004075293
  0.8560221750171308  0.3602115987342671  0.3582086132660862
  0.8593886038481173  0.3588761251365753  0.8590265100164416
  0.8588440081268871  0.8586106493358940  0.3587244319255305
  0.8587367797699059  0.8589099484794147  0.8587260737062010
  0.1088199011126534  0.3589333340771930  0.1086057613794296
  0.1069043309247277  0.3596195075290893  0.6088200649268032
  0.1087804058930217  0.8587783117698535  0.1087804749507342
  0.1086051143306719  0.8588180907174277  0.6089356726740718
  0.6096209959645336  0.3588177181657741  0.1069040623278283
  0.6094894723737880  0.3594887576825911  0.6094897767454484
  0.6089349651915725  0.8586033569922478  0.1088202832516600
  0.6088196573394313  0.8569021926445188  0.6096217360761429
  0.3586681959852385  0.1088041115575393  0.1086788851861300
  0.3565796784588073  0.1016499607719652  0.6106662540751842
  0.3587239199432659  0.6088421133180191  0.1086132349316529
  0.3582086288257003  0.6060179436580313  0.6102160548491682
  0.8589893094357066  0.1088433890668554  0.1087264813474604
  0.8587850876014329  0.1084282110812254  0.6089775726661699
  0.8587249922044506  0.6087343249314330  0.1089126067361903
  0.8590263023170763  0.6093865961617411  0.6088801037305203
  0.1086789446402534  0.1086655268543097  0.3588075918867375
  0.1086128165911759  0.1087216533335393  0.8588450140419255
  0.1087263740545978  0.6089864050330007  0.3588454869725410
  0.1089132001728004  0.6087228678718191  0.8587372556127235
  0.6106660589648030  0.1065783366443682  0.3516528257402740
  0.6102149470982923  0.1082062701577371  0.8560210733641185
  0.6089772689617803  0.6087827312554950  0.3584308456766294
  0.6088784939656620  0.6090240793959225  0.8593894128231483
  0.3136754106623130  0.2258854773380534  0.3797028525026178
  0.3143026768327672  0.2265616344665986  0.8792648157700285
  0.3141780526522808  0.7266710737593201  0.3791505525994694
  0.3145347734473276  0.7265809368575304  0.8798443406492211
  0.8154153437349976  0.2261026799285091  0.3798088924976071
  0.8148055813637924  0.2265350013041498  0.8795093257825499
  0.8143027126918057  0.7266226106006854  0.3793649928251597
  0.8145576956690235  0.7266384359165343  0.8796388294219071
  0.0645041036978782  0.2265334607525347  0.1295085376792642
  0.0646751619836294  0.2263190726721689  0.6299595468963588
  0.0643258133018350  0.7265898411079590  0.1295279272875689
  0.0639682953978280  0.7268167995235046  0.6297021990318328
  0.5642523594832625  0.2262249047794072  0.1293489536841648
  0.5625537882688931  0.2272228724316179  0.6393649303550646
  0.5643382034912534  0.7263946748532177  0.1299901880343555
  0.5643960305764111  0.7265673475364949  0.6286087358495962
  0.3141894492638855  0.4765086512860321  0.1295116563172840
  0.3137339655370468  0.4780728990315453  0.6284263332593198
  0.3143297257082338  0.9764109926479989  0.1295230821259992
  0.3139214126565477  0.9753196420996133  0.6294492094793895
  0.8146118980654435  0.4765741179685534  0.1294956720584395
  0.8154223183894516  0.4772252287330332  0.6302268965109405
  0.8146319485251752  0.9764620745527992  0.1290755606946945
  0.8139372117837596  0.9766470193140222  0.6291147525762995
  0.0641394778170650  0.4765144945605897  0.3797493889553039
  0.0647338137404603  0.4765419098679899  0.8797113757601167
  0.0642772250298691  0.9764069854421038  0.3795302287658089
  0.0644640385761477  0.9764295811580439  0.8796463188061523
  0.5643401418839744  0.4753429869037902  0.3805310403221185
  0.5644555829127000  0.4775261583802575  0.8812286510675662
  0.5643187654069735  0.9763378517187959  0.3792485729269472
  0.5641192878503958  0.9758295848417120  0.8801924564349690
  0.3792490014920560  0.3143190989653561  0.2263386347804754
  0.3805317462488276  0.3143430080955980  0.7253421206927726
  0.3795308767443188  0.8142772830254685  0.2264063567321415
  0.3797502089279519  0.8141406271925078  0.7265139127087537
  0.8801925404250923  0.3141199127790841  0.2258291914875983
  0.8812287229955515  0.3144553353459045  0.7275264135120523
  0.8796469075153226  0.8144664725993422  0.2264288371793839
  0.8797104356297396  0.8147346803919078  0.7265419413108560
  0.1293490682224601  0.3142537802389000  0.4762243384202662
  0.1299903503241211  0.3143390257279322  0.9763945310708095
  0.1295081982531912  0.8145051644054249  0.4765334706562925
  0.1295278406209448  0.8143266045929352  0.9765896816918485
  0.6393639466680980  0.3125552391890025  0.4772225164189337
  0.6286081533988579  0.3143983662347622  0.9765681587501049
  0.6299604806741073  0.8146759335642813  0.4763188524131223
  0.6297025150985078  0.8139694583084420  0.9768170769394402
  0.3797033735082707  0.0636762605255186  0.4758849247471488
  0.3791514568345562  0.0641791101555924  0.9766703518752706
  0.3798098675782811  0.5654161164157827  0.4761027065699182
  0.3793655295573544  0.5643042394747084  0.9766224055030222
  0.8792658634680066  0.0643036400632298  0.4765613104498456
  0.8798456543534172  0.0645372676695928  0.9765797562694303
  0.8795098184133963  0.5648069415063404  0.4765343612455410
  0.8796383346059073  0.5645572204705545  0.9766391668164829
  0.1295250538024675  0.0643318270364546  0.2264112854446410
  0.1295124228740150  0.0641909622520984  0.7265079879584491
  0.1290763167605107  0.5646323947345380  0.2264618455433407
  0.1294956435687666  0.5646129943770148  0.7265745960068841
  0.6294496786626738  0.0639227346811140  0.2253201227805164
  0.6284279849276970  0.0637339032262574  0.7280719910184814
  0.6291151967339559  0.5639375449945376  0.2266471675631934
  0.6302262437904105  0.5654235805907533  0.7272257204144736
  0.2253199905606493  0.3794500676421961  0.3139227693091158
  0.2266466518876626  0.3791159686010275  0.8139384920705908
  0.2264102585606622  0.8795267947293510  0.3143327739135202
  0.2264606799184250  0.8790776841992809  0.8146326525669707
  0.7280711832800293  0.3784288147904817  0.3137324502093151
  0.7272232914075616  0.3802281068161903  0.8154234505822231
  0.7265077220816423  0.8795123043231357  0.3141902624546660
  0.7265737612072911  0.8794966042446077  0.8146138554743132
  0.4763170080030648  0.3799631568691595  0.0646770745034857
  0.4772232392137283  0.3893660692168552  0.5625562094971244
  0.4765327163022306  0.8795091952434007  0.0645058174327886
  0.4762244884225666  0.8793500355096882  0.5642537156505441
  0.9768171377207580  0.3797031697976436  0.0639697179603544
  0.9765663747895132  0.3786100479709589  0.5643970498305464
  0.9765895789109393  0.8795287958473708  0.0643266861054315
  0.9763942819381128  0.8799908006253645  0.5643397955340816
  0.2264057191190361  0.1295320206170203  0.0642783414755073
  0.2263373528722923  0.1292488638263904  0.5643186824745214
  0.2264285674522455  0.6296477671672847  0.0644664400485269
  0.2258291785867854  0.6301936992313912  0.5641203589476405
  0.7265135798889233  0.1297539201333748  0.0641419937680254
  0.7253417110783857  0.1305329081071207  0.5643421630183738
  0.7265411378542339  0.6297116763029109  0.0647353490922811
  0.7275265003414688  0.6312300711239374  0.5644574114075382
  0.4758849478935261  0.1297042247392923  0.3136767185372875
  0.4761024214582292  0.1298105418839910  0.8154159994465147
  0.4765609594523497  0.6292664106030585  0.3143039515888617
  0.4765338627834765  0.6295107607026011  0.8148070356414081
  0.9766706118375836  0.1291519322162316  0.3141791256838715
  0.9766220582566874  0.1293662138658007  0.8143035970367691
  0.9765789918183501  0.6298469039834060  0.3145383394386485
  0.9766386777083582  0.6296408433029228  0.8145586433123668
  0.3138679305487457  0.1293831548644278  0.2262288075805969
  0.3138886602556852  0.1297543066325773  0.7263777214124616
  0.3141931512243090  0.6293859424253014  0.2262837667630819
  0.3140867751514378  0.6300875897014464  0.7270824613637359
  0.8141757200020763  0.1293858398575338  0.2264955189472175
  0.8143207624948943  0.1293153325337428  0.7266072486130994
  0.8144933113815185  0.6298324564282325  0.2264956185866183
  0.8148203841507424  0.6299003210259855  0.7266969572575022
  0.0642424829225021  0.1296466335740263  0.4765055299749221
  0.0643664443718208  0.1295277421949947  0.9765368852525995
  0.0643724187098371  0.6298605168508402  0.4764037292567096
  0.0643704515087720  0.6296154995301606  0.9765084330718068
  0.5621168979947768  0.1308914201661580  0.4735963820326603
  0.5643888111343500  0.1282189538476075  0.9763756612084720
  0.5645419824092315  0.6296022243932953  0.4759658588344564
  0.5644496177450620  0.6302766129567487  0.9770501523927706
  0.3126368751702202  0.3788446207418730  0.4761150126653106
  0.3142094806559541  0.3797472427640685  0.9764048090297095
  0.3141736097720695  0.8796160979992322  0.4762120702470867
  0.3144000947728003  0.8796802231246517  0.9765049694555614
  0.8160280169984873  0.3802029255722132  0.4766426613814403
  0.8145959971267445  0.3794654687160417  0.9766469353757046
  0.8143859521279353  0.8793114951155800  0.4764863795698346
  0.8144889556456505  0.8794710730488902  0.9765169679230397
  0.0645261048129058  0.3800602730878140  0.2260299199491413
  0.0640718885598730  0.3799965949317539  0.7268431957461559
  0.0644184427413492  0.8794519638675382  0.2264981140033271
  0.0643072311035908  0.8797209549517220  0.7266484751614044
  0.5653490076396253  0.3800206354861047  0.2255039661474143
  0.5647902390074648  0.3816710838039654  0.7295467731524354
  0.5643284843833456  0.8793731968688974  0.2264773952292458
  0.5643187125138667  0.8790271772455540  0.7268032107746691
  0.2264768811010427  0.3143282637061873  0.1293735604473056
  0.2255039528357727  0.3153499996590554  0.6300210457281850
  0.2264977629792853  0.8144180166500092  0.1294523309073341
  0.2260295266613852  0.8145261267345347  0.6300607433342122
  0.7268028165145211  0.3143188169647004  0.1290280330121547
  0.7295461909169560  0.3147902133524525  0.6316704544893810
  0.7266484345339066  0.8143069796022999  0.1297213190612752
  0.7268433190495003  0.8140722127897391  0.6299968766941006
  0.4735970273970054  0.3121184482142070  0.3808912364119692
  0.4759657888128288  0.3145416168294517  0.8796017715327196
  0.4765054688563026  0.8142424465246592  0.3796473391113651
  0.4764034359736655  0.8143709198675779  0.8798616702897135
  0.9763758410732706  0.3143887333403015  0.3782197031495897
  0.9770495113824680  0.3144493907711023  0.8802773224560099
  0.9765366125187427  0.8143660149769971  0.3795283018657756
  0.9765087797857888  0.8143697737845059  0.8796163641721080
  0.2262287103943805  0.0638674697834816  0.3793836789618865
  0.2262837291250719  0.0641933581712948  0.8793860416679351
  0.2264956971708827  0.5641751412735871  0.3793865170942823
  0.2264967223063010  0.5644919478387891  0.8798332744390081
  0.7263783313137040  0.0638892497207024  0.3797551623351865
  0.7270829267172232  0.0640874789985730  0.8800877694947928
  0.7266074821404658  0.5643197108194755  0.3793155626532254
  0.7266964470188526  0.5648190635055670  0.8799000396186472
  0.4762120330083874  0.0641730859044074  0.1296159714042986
  0.4761151452533454  0.0626371026416024  0.6288447802019874
  0.4764864373530386  0.5643855823454800  0.1293117048578551
  0.4766436249381982  0.5660291405454529  0.6302039637527415
  0.9765054922778518  0.0643996103871629  0.1296809523108848
  0.9764020913866673  0.0642050142432637  0.6297510008800415
  0.9765169023199363  0.5644887550295792  0.1294713928251170
  0.9766471972228601  0.5645958137493707  0.6294665688914449
  0.1296143598040871  0.2262128412525115  0.3141735203214040
  0.1293108107846095  0.2264869590423331  0.8143853178479503
  0.1296803280027987  0.7265053471666079  0.3143997611249247
  0.1294708107388018  0.7265168501416497  0.8144888582905310
  0.6288441191097149  0.2261161764613959  0.3126364396938044
  0.6302028953414407  0.2266436486206445  0.8160281048422959
  0.6297503960930300  0.7264026270017609  0.3142048597372664
  0.6294657003478150  0.7266470281100936  0.8145959108265615
  0.3796471854265491  0.2265051055043159  0.0642425685977059
  0.3808901202080790  0.2235960054929507  0.5621159972884300
  0.3795275434529231  0.7265368865365858  0.0643660587397648
  0.3782176778595172  0.7263762095669435  0.5643870057156732
  0.8798608889183583  0.2264043583391171  0.0643719722704788
  0.8796018826668899  0.2259658963055244  0.5645412527065972
  0.8796155822767489  0.7265085450074409  0.0643699823705148
  0.8802767230416464  0.7270500273468201  0.5644495493640846
  0.1297214028590048  0.4766488339361672  0.0643071144221139
  0.1290288298938833  0.4768033292802798  0.5643173026377966
  0.1294513962826969  0.9764983415354749  0.0644179330307182
  0.1293727342391477  0.9764773588568545  0.5643280799182122
  0.6299960512889342  0.4768438857592088  0.0640717240146245
  0.6316712087981955  0.4795477670138624  0.5647888959888476
  0.6300607038400301  0.9760305888235052  0.0645260277233675
  0.6300211052061471  0.9755042015472100  0.5653494454237560
  0.3797536769992149  0.4763785820871220  0.3138884538256548
  0.3793148412032536  0.4766077460821450  0.8143204490002560
  0.3793833777500808  0.9762289642798194  0.3138668064371899
  0.3793862689540788  0.9764956733792189  0.8141746625860762
  0.8800860122093610  0.4770823278125036  0.3140856972247477
  0.8798987979471420  0.4766977939549761  0.8148181578596194
  0.8793853971778631  0.9762841847582848  0.3141932831714414
  0.8798327286439402  0.9764959561810187  0.8144930533984152
 
  0.00000000E+00  0.00000000E+00  0.00000000E+00
  0.00000000E+00  0.00000000E+00  0.00000000E+00
  0.00000000E+00  0.00000000E+00  0.00000000E+00
  0.00000000E+00  0.00000000E+00  0.00000000E+00
  0.00000000E+00  0.00000000E+00  0.00000000E+00
  0.00000000E+00  0.00000000E+00  0.00000000E+00
  0.00000000E+00  0.00000000E+00  0.00000000E+00
  0.00000000E+00  0.00000000E+00  0.00000000E+00
  0.00000000E+00  0.00000000E+00  0.00000000E+00
  0.00000000E+00  0.00000000E+00  0.00000000E+00
  0.00000000E+00  0.00000000E+00  0.00000000E+00
  0.00000000E+00  0.00000000E+00  0.00000000E+00
  0.00000000E+00  0.00000000E+00  0.00000000E+00
  0.00000000E+00  0.00000000E+00  0.00000000E+00
  0.00000000E+00  0.00000000E+00  0.00000000E+00
  0.00000000E+00  0.00000000E+00  0.00000000E+00
  0.00000000E+00  0.00000000E+00  0.00000000E+00
  0.00000000E+00  0.00000000E+00  0.00000000E+00
  0.00000000E+00  0.00000000E+00  0.00000000E+00
  0.00000000E+00  0.00000000E+00  0.00000000E+00
  0.00000000E+00  0.00000000E+00  0.00000000E+00
  0.00000000E+00  0.00000000E+00  0.00000000E+00
  0.00000000E+00  0.00000000E+00  0.00000000E+00
  0.00000000E+00  0.00000000E+00  0.00000000E+00
  0.00000000E+00  0.00000000E+00  0.00000000E+00
  0.00000000E+00  0.00000000E+00  0.00000000E+00
  0.00000000E+00  0.00000000E+00  0.00000000E+00
  0.00000000E+00  0.00000000E+00  0.00000000E+00
  0.00000000E+00  0.00000000E+00  0.00000000E+00
  0.00000000E+00  0.00000000E+00  0.00000000E+00
  0.00000000E+00  0.00000000E+00  0.00000000E+00
  0.00000000E+00  0.00000000E+00  0.00000000E+00
  0.00000000E+00  0.00000000E+00  0.00000000E+00
  0.00000000E+00  0.00000000E+00  0.00000000E+00
  0.00000000E+00  0.00000000E+00  0.00000000E+00
  0.00000000E+00  0.00000000E+00  0.00000000E+00
  0.00000000E+00  0.00000000E+00  0.00000000E+00
  0.00000000E+00  0.00000000E+00  0.00000000E+00
  0.00000000E+00  0.00000000E+00  0.00000000E+00
  0.00000000E+00  0.00000000E+00  0.00000000E+00
  0.00000000E+00  0.00000000E+00  0.00000000E+00
  0.00000000E+00  0.00000000E+00  0.00000000E+00
  0.00000000E+00  0.00000000E+00  0.00000000E+00
  0.00000000E+00  0.00000000E+00  0.00000000E+00
  0.00000000E+00  0.00000000E+00  0.00000000E+00
  0.00000000E+00  0.00000000E+00  0.00000000E+00
  0.00000000E+00  0.00000000E+00  0.00000000E+00
  0.00000000E+00  0.00000000E+00  0.00000000E+00
  0.00000000E+00  0.00000000E+00  0.00000000E+00
  0.00000000E+00  0.00000000E+00  0.00000000E+00
  0.00000000E+00  0.00000000E+00  0.00000000E+00
  0.00000000E+00  0.00000000E+00  0.00000000E+00
  0.00000000E+00  0.00000000E+00  0.00000000E+00
  0.00000000E+00  0.00000000E+00  0.00000000E+00
  0.00000000E+00  0.00000000E+00  0.00000000E+00
  0.00000000E+00  0.00000000E+00  0.00000000E+00
  0.00000000E+00  0.00000000E+00  0.00000000E+00
  0.00000000E+00  0.00000000E+00  0.00000000E+00
  0.00000000E+00  0.00000000E+00  0.00000000E+00
  0.00000000E+00  0.00000000E+00  0.00000000E+00
  0.00000000E+00  0.00000000E+00  0.00000000E+00
  0.00000000E+00  0.00000000E+00  0.00000000E+00
  0.00000000E+00  0.00000000E+00  0.00000000E+00
  0.00000000E+00  0.00000000E+00  0.00000000E+00
  0.00000000E+00  0.00000000E+00  0.00000000E+00
  0.00000000E+00  0.00000000E+00  0.00000000E+00
  0.00000000E+00  0.00000000E+00  0.00000000E+00
  0.00000000E+00  0.00000000E+00  0.00000000E+00
  0.00000000E+00  0.00000000E+00  0.00000000E+00
  0.00000000E+00  0.00000000E+00  0.00000000E+00
  0.00000000E+00  0.00000000E+00  0.00000000E+00
  0.00000000E+00  0.00000000E+00  0.00000000E+00
  0.00000000E+00  0.00000000E+00  0.00000000E+00
  0.00000000E+00  0.00000000E+00  0.00000000E+00
  0.00000000E+00  0.00000000E+00  0.00000000E+00
  0.00000000E+00  0.00000000E+00  0.00000000E+00
  0.00000000E+00  0.00000000E+00  0.00000000E+00
  0.00000000E+00  0.00000000E+00  0.00000000E+00
  0.00000000E+00  0.00000000E+00  0.00000000E+00
  0.00000000E+00  0.00000000E+00  0.00000000E+00
  0.00000000E+00  0.00000000E+00  0.00000000E+00
  0.00000000E+00  0.00000000E+00  0.00000000E+00
  0.00000000E+00  0.00000000E+00  0.00000000E+00
  0.00000000E+00  0.00000000E+00  0.00000000E+00
  0.00000000E+00  0.00000000E+00  0.00000000E+00
  0.00000000E+00  0.00000000E+00  0.00000000E+00
  0.00000000E+00  0.00000000E+00  0.00000000E+00
  0.00000000E+00  0.00000000E+00  0.00000000E+00
  0.00000000E+00  0.00000000E+00  0.00000000E+00
  0.00000000E+00  0.00000000E+00  0.00000000E+00
  0.00000000E+00  0.00000000E+00  0.00000000E+00
  0.00000000E+00  0.00000000E+00  0.00000000E+00
  0.00000000E+00  0.00000000E+00  0.00000000E+00
  0.00000000E+00  0.00000000E+00  0.00000000E+00
  0.00000000E+00  0.00000000E+00  0.00000000E+00
  0.00000000E+00  0.00000000E+00  0.00000000E+00
  0.00000000E+00  0.00000000E+00  0.00000000E+00
  0.00000000E+00  0.00000000E+00  0.00000000E+00
  0.00000000E+00  0.00000000E+00  0.00000000E+00
  0.00000000E+00  0.00000000E+00  0.00000000E+00
  0.00000000E+00  0.00000000E+00  0.00000000E+00
  0.00000000E+00  0.00000000E+00  0.00000000E+00
  0.00000000E+00  0.00000000E+00  0.00000000E+00
  0.00000000E+00  0.00000000E+00  0.00000000E+00
  0.00000000E+00  0.00000000E+00  0.00000000E+00
  0.00000000E+00  0.00000000E+00  0.00000000E+00
  0.00000000E+00  0.00000000E+00  0.00000000E+00
  0.00000000E+00  0.00000000E+00  0.00000000E+00
  0.00000000E+00  0.00000000E+00  0.00000000E+00
  0.00000000E+00  0.00000000E+00  0.00000000E+00
  0.00000000E+00  0.00000000E+00  0.00000000E+00
  0.00000000E+00  0.00000000E+00  0.00000000E+00
  0.00000000E+00  0.00000000E+00  0.00000000E+00
  0.00000000E+00  0.00000000E+00  0.00000000E+00
  0.00000000E+00  0.00000000E+00  0.00000000E+00
  0.00000000E+00  0.00000000E+00  0.00000000E+00
  0.00000000E+00  0.00000000E+00  0.00000000E+00
  0.00000000E+00  0.00000000E+00  0.00000000E+00
  0.00000000E+00  0.00000000E+00  0.00000000E+00
  0.00000000E+00  0.00000000E+00  0.00000000E+00
  0.00000000E+00  0.00000000E+00  0.00000000E+00
  0.00000000E+00  0.00000000E+00  0.00000000E+00
  0.00000000E+00  0.00000000E+00  0.00000000E+00
  0.00000000E+00  0.00000000E+00  0.00000000E+00
  0.00000000E+00  0.00000000E+00  0.00000000E+00
  0.00000000E+00  0.00000000E+00  0.00000000E+00
  0.00000000E+00  0.00000000E+00  0.00000000E+00
  0.00000000E+00  0.00000000E+00  0.00000000E+00
  0.00000000E+00  0.00000000E+00  0.00000000E+00
  0.00000000E+00  0.00000000E+00  0.00000000E+00
  0.00000000E+00  0.00000000E+00  0.00000000E+00
  0.00000000E+00  0.00000000E+00  0.00000000E+00
  0.00000000E+00  0.00000000E+00  0.00000000E+00
  0.00000000E+00  0.00000000E+00  0.00000000E+00
  0.00000000E+00  0.00000000E+00  0.00000000E+00
  0.00000000E+00  0.00000000E+00  0.00000000E+00
  0.00000000E+00  0.00000000E+00  0.00000000E+00
  0.00000000E+00  0.00000000E+00  0.00000000E+00
  0.00000000E+00  0.00000000E+00  0.00000000E+00
  0.00000000E+00  0.00000000E+00  0.00000000E+00
  0.00000000E+00  0.00000000E+00  0.00000000E+00
  0.00000000E+00  0.00000000E+00  0.00000000E+00
  0.00000000E+00  0.00000000E+00  0.00000000E+00
  0.00000000E+00  0.00000000E+00  0.00000000E+00
  0.00000000E+00  0.00000000E+00  0.00000000E+00
  0.00000000E+00  0.00000000E+00  0.00000000E+00
  0.00000000E+00  0.00000000E+00  0.00000000E+00
  0.00000000E+00  0.00000000E+00  0.00000000E+00
  0.00000000E+00  0.00000000E+00  0.00000000E+00
  0.00000000E+00  0.00000000E+00  0.00000000E+00
  0.00000000E+00  0.00000000E+00  0.00000000E+00
  0.00000000E+00  0.00000000E+00  0.00000000E+00
  0.00000000E+00  0.00000000E+00  0.00000000E+00
  0.00000000E+00  0.00000000E+00  0.00000000E+00
  0.00000000E+00  0.00000000E+00  0.00000000E+00
  0.00000000E+00  0.00000000E+00  0.00000000E+00
  0.00000000E+00  0.00000000E+00  0.00000000E+00
  0.00000000E+00  0.00000000E+00  0.00000000E+00
  0.00000000E+00  0.00000000E+00  0.00000000E+00
  0.00000000E+00  0.00000000E+00  0.00000000E+00
  0.00000000E+00  0.00000000E+00  0.00000000E+00
  0.00000000E+00  0.00000000E+00  0.00000000E+00
  0.00000000E+00  0.00000000E+00  0.00000000E+00
  0.00000000E+00  0.00000000E+00  0.00000000E+00
  0.00000000E+00  0.00000000E+00  0.00000000E+00
  0.00000000E+00  0.00000000E+00  0.00000000E+00
  0.00000000E+00  0.00000000E+00  0.00000000E+00
  0.00000000E+00  0.00000000E+00  0.00000000E+00
  0.00000000E+00  0.00000000E+00  0.00000000E+00
  0.00000000E+00  0.00000000E+00  0.00000000E+00
  0.00000000E+00  0.00000000E+00  0.00000000E+00
  0.00000000E+00  0.00000000E+00  0.00000000E+00
  0.00000000E+00  0.00000000E+00  0.00000000E+00
  0.00000000E+00  0.00000000E+00  0.00000000E+00
  0.00000000E+00  0.00000000E+00  0.00000000E+00
  0.00000000E+00  0.00000000E+00  0.00000000E+00
  0.00000000E+00  0.00000000E+00  0.00000000E+00
  0.00000000E+00  0.00000000E+00  0.00000000E+00
  0.00000000E+00  0.00000000E+00  0.00000000E+00
  0.00000000E+00  0.00000000E+00  0.00000000E+00
  0.00000000E+00  0.00000000E+00  0.00000000E+00
  0.00000000E+00  0.00000000E+00  0.00000000E+00
  0.00000000E+00  0.00000000E+00  0.00000000E+00
  0.00000000E+00  0.00000000E+00  0.00000000E+00
  0.00000000E+00  0.00000000E+00  0.00000000E+00
  0.00000000E+00  0.00000000E+00  0.00000000E+00
  0.00000000E+00  0.00000000E+00  0.00000000E+00
  0.00000000E+00  0.00000000E+00  0.00000000E+00
  0.00000000E+00  0.00000000E+00  0.00000000E+00
  0.00000000E+00  0.00000000E+00  0.00000000E+00
  0.00000000E+00  0.00000000E+00  0.00000000E+00
  0.00000000E+00  0.00000000E+00  0.00000000E+00
  0.00000000E+00  0.00000000E+00  0.00000000E+00
  0.00000000E+00  0.00000000E+00  0.00000000E+00
  0.00000000E+00  0.00000000E+00  0.00000000E+00
  0.00000000E+00  0.00000000E+00  0.00000000E+00
  0.00000000E+00  0.00000000E+00  0.00000000E+00
  0.00000000E+00  0.00000000E+00  0.00000000E+00
  0.00000000E+00  0.00000000E+00  0.00000000E+00
  0.00000000E+00  0.00000000E+00  0.00000000E+00
  0.00000000E+00  0.00000000E+00  0.00000000E+00
  0.00000000E+00  0.00000000E+00  0.00000000E+00
  0.00000000E+00  0.00000000E+00  0.00000000E+00
  0.00000000E+00  0.00000000E+00  0.00000000E+00
  0.00000000E+00  0.00000000E+00  0.00000000E+00
  0.00000000E+00  0.00000000E+00  0.00000000E+00
  0.00000000E+00  0.00000000E+00  0.00000000E+00