Li63 Ta65 O192                          
   1.00000000000000     
    15.0337320000000005   -0.0060940000000000   -0.0057460000000000
     0.9606630000000000   15.0030490000000007   -0.0057500000000000
     0.9606080000000000    0.9007180000000000   14.9759290000000007
   Li   Ta   O 
    63    65   192
Direct
  0.3899264931330180  0.3899620099007564  0.8885899344059425
  0.3899626826170532  0.8885899244119031  0.3899265564858467
  0.3898741691694241  0.8900255017156837  0.8901188162723699
  0.8885905948512018  0.3899268421751216  0.3899623863154673
  0.8901190870272586  0.3898742538935238  0.8900254063608841
  0.8900255570355284  0.8901192840567660  0.3898741071674294
  0.8898515210883176  0.8898499247744027  0.8898527633220965
  0.1376388556354016  0.3880398286253453  0.1383839920252328
  0.1393759587787216  0.3898780407709310  0.6395680794912053
  0.1399495993658419  0.8897701721686531  0.1397797605848581
  0.1392674547995938  0.8900201682297535  0.6403626543453242
  0.6400110779796790  0.3907501997655700  0.1395816529417075
  0.6400947505842325  0.3896395620073179  0.6410990433408017
  0.6400455388173398  0.8898602989616791  0.1399005114961938
  0.6395768977490874  0.8898623829771068  0.6400175279434990
  0.3880396402489978  0.1383842187926163  0.1376383977894733
  0.3907508138032512  0.1395815249380092  0.6400110573686604
  0.3898779373864656  0.6395687507785652  0.1393757691751034
  0.3896398424751339  0.6410998905268315  0.6400947523620459
  0.8897698906909639  0.1397799303516365  0.1399503706785978
  0.8898602942087024  0.1399010294001783  0.6400451002505392
  0.8900199189002436  0.6403633004370946  0.1392676221568792
  0.8898625805974305  0.6400177309359307  0.6395763668593020
  0.1383841221056130  0.1376381836535217  0.3880388068914797
  0.1397797234175044  0.1399500845775563  0.8897697837306069
  0.1395819661338038  0.6400110651545958  0.3907506382883241
  0.1399008576726715  0.6400458073650555  0.8898598304708898
  0.6395681614332105  0.1393761989940145  0.3898781537277500
  0.6403625095315988  0.1392675403611037  0.8900202906842409
  0.6410993805137863  0.6400950504078082  0.3896396752786728
  0.6400180590161000  0.6395764948764580  0.8898625876892794
  0.1398180190143208  0.1398182411902127  0.1398180624492085
  0.1385046032821435  0.1381019981215559  0.6412551258670618
  0.1381024330537102  0.6412550355796114  0.1385050788041440
  0.1393778687542166  0.6388018322961884  0.6389924235681690
  0.6412544124840522  0.1385053866234784  0.1381020001324060
  0.6389922803718520  0.1393780207156539  0.6388010965563637
  0.6388023926668822  0.6389937231517067  0.1393771969009663
  0.6399176218750569  0.6399173146520951  0.6399173490030918
  0.3887107903729685  0.1377708308595516  0.3881697480064048
  0.3894617977898207  0.1395867543557614  0.8889291554701657
  0.3910930881616039  0.6462223388021684  0.3892775861786149
  0.3896651004509977  0.6401108200255763  0.8905943694789471
  0.8895118165109039  0.1399285300531687  0.3897416981665032
  0.8900863791096967  0.1397842292193801  0.8899536768449252
  0.8892744800805374  0.6397919144035811  0.3905937083436299
  0.8898245432006178  0.6400013927655124  0.8897900108954460
  0.1377702850651303  0.3881697694848043  0.3887111403216537
  0.1399282752180611  0.3897423432017959  0.8895118827906714
  0.1395864868357890  0.8889293869501316  0.3894617855216467
  0.1397839191471633  0.8899546958284290  0.8900860695978139
  0.6462218641694619  0.3892788017181061  0.3910929206157050
  0.6397915598782618  0.3905934541523806  0.8892744490920350
  0.6401101141725647  0.8905944909444656  0.3896650929882028
  0.6400011064871194  0.8897905062090388  0.8898239842931019
  0.3881701129575745  0.3887105155276629  0.1377702036885253
  0.3892775285438645  0.3910928635991766  0.6462234993419926
  0.3897419697068329  0.8895123793173454  0.1399280602467456
  0.3905939823806648  0.8892742409956611  0.6397912304007889
  0.8889294968310040  0.3894618694509546  0.1395859337079770
  0.8905943043709712  0.3896651510660405  0.6401097251580268
  0.8899539998216923  0.8900862538721341  0.1397840487222837
  0.8897901314531751  0.8898242093051962  0.6400009101094568
  0.4024980603792656  0.4024989706353850  0.4025013162365028
  0.2478011980514339  0.2478013993672334  0.2478007087758982
  0.2480549849495830  0.2479352560541415  0.7480037726993700
  0.2479350638762625  0.7480040519448323  0.2480550043100820
  0.2479174034046991  0.7482058655188908  0.7482431339133839
  0.7480031821369835  0.2480557802995946  0.2479351064433857
  0.7482437274397356  0.2479175760862020  0.7482054631634227
  0.7482048098308383  0.7482442798999145  0.2479177121248597
  0.7481980545395785  0.7481984827096895  0.7481983028236030
  0.4968808486881073  0.2475535102481814  0.4958920512944758
  0.4975323868506862  0.2488458342925099  0.9941388600328622
  0.4994394807149476  0.7476892666327259  0.4981091512861937
  0.4980425414706104  0.7481570651750857  0.9981165232407534
  0.9976518369836995  0.2479219293703281  0.4981887365405058
  0.9980504305727180  0.2481101024845813  0.9980800478227678
  0.9980169271710437  0.7483619542945661  0.4981116145962829
  0.9979223853282448  0.7483270485622242  0.9978670469475830
  0.2475534041886007  0.4958920677025205  0.4968812018854081
  0.2479220579859529  0.4981888516758985  0.9976520049704334
  0.2488456187584092  0.9941386758019064  0.4975325978278562
  0.2481093096295837  0.9980809768876355  0.9980501624757849
  0.7476888799238850  0.4981096612085878  0.4994392294844090
  0.7483614993935390  0.4981119884573246  0.9980166525125398
  0.7481562353279543  0.9981172150515789  0.4980426722275695
  0.7483257020003080  0.9978679413984892  0.9979222356485167
  0.4958939380081162  0.4968826139319944  0.2475517994959873
  0.4981090242208666  0.4994397181680128  0.7476891837832369
  0.4981889059360043  0.9976521646531182  0.2479219671372164
  0.4981119285043931  0.9980171090122241  0.7483613585414730
  0.9941399298662077  0.4975333819552148  0.2488447963504754
  0.9981168461984069  0.4980428220637521  0.7481563199820016
  0.9980800192072365  0.9980514058610410  0.2481096915558751
  0.9978672096957553  0.9979229648834931  0.7483263072142421
  0.5002284939573158  0.5002293505909847  0.5002291808652046
  0.4985030287408136  0.4980380402310658  0.9975157268626873
  0.4980376381514446  0.9975167281178088  0.4985025004558636
  0.4982937399166403  0.9978435711664204  0.9980786403516717
  0.9975166541808278  0.4985033146603897  0.4980372502889878
  0.9980798457819517  0.4982943405821629  0.9978428941269115
  0.9978435032106390  0.9980796057935493  0.4982938677910553
  0.9981335734784267  0.9981346469368120  0.9981329256447893
  0.2415813189593763  0.4992207078520750  0.2460497551411223
  0.2479608870937895  0.4983445249714080  0.7475492338086127
  0.2480595066704652  0.9978571730013002  0.2479538855126009
  0.2481788915051908  0.9979456592748406  0.7482459942334501
  0.7454496718974255  0.4993359453329589  0.2473601566725563
  0.7487468340899284  0.4981857990691196  0.7481363689172085
  0.7480990521719662  0.9979441678908714  0.2480681342018372
  0.7480683035517686  0.9981441097666846  0.7480493730628623
  0.4992196621625027  0.2460491344971985  0.2415808164397717
  0.4993360550102039  0.2473608688245790  0.7454485039310867
  0.4983443026992305  0.7475500780221793  0.2479606362070896
  0.4981854806128396  0.7481373338504866  0.7487465635802479
  0.9978569133600459  0.2479547515210641  0.2480585341545662
  0.9979435680687558  0.2480687311558540  0.7480995274984608
  0.9979452246535203  0.7482468736230317  0.2481785920889834
  0.9981439837008708  0.7480496628829911  0.7480672680212734
  0.2460490092188934  0.2415793343099182  0.4992211163469449
  0.2479539151771846  0.2480596445793495  0.9978565236372390
  0.2473609348969532  0.7454485528717143  0.4993358468610936
  0.2480687652792284  0.7480998729488348  0.9979428135694093
  0.7475491015200575  0.2479613918322698  0.4983440328811781
  0.7482464635593971  0.2481786028998414  0.9979452651422207
  0.7481367337290408  0.7487471576048179  0.4981854035635962
  0.7480490889854181  0.7480683037676101  0.9981437500677686
  0.2066159465705084  0.3677608341500473  0.2702299572122442
  0.2081694062877304  0.3684813338638548  0.7698059499532377
  0.2078595696288588  0.8683557652697544  0.2700234398457084
  0.2080622059240866  0.8684841183982996  0.7710847206898208
  0.7088787599572157  0.3682237345955031  0.2703835482624584
  0.7086103707512237  0.3683831234254171  0.7704427643310652
  0.7078140175745560  0.8686174759477296  0.2703067389090208
  0.7081980467547382  0.8685767656874219  0.7706266586783670
  0.4579549064335140  0.3682423176211387  0.0204875153317658
  0.4553430144946589  0.3698254171446465  0.5316438762829705
  0.4580261804956152  0.8683835932740394  0.0212841643288471
  0.4584766545427712  0.8690449602048744  0.5205337941465658
  0.9581740973195849  0.3684609537434298  0.0204939862520916
  0.9587813274078130  0.3683122402458849  0.5208381586098838
  0.9579299347390204  0.8685787076702880  0.0206115662545230
  0.9577159258519714  0.8687977274504561  0.5206233688798250
  0.2080485747167273  0.1183387551548449  0.0205672368804954
  0.2073837106280578  0.1168999550700178  0.5208382649867005
  0.2076155284204546  0.6183706244080867  0.0204369919526997
  0.2079537058857639  0.6194908824315775  0.5200886108150087
  0.7082135917402539  0.1184101938862341  0.0199978370424958
  0.7074679939487041  0.1188208522490299  0.5200389873329385
  0.7082465016794828  0.6184854988987780  0.0205467724255044
  0.7093293095258133  0.6191952275757302  0.5208681569877740
  0.4580401672751293  0.1183841099286411  0.2705058569295531
  0.4579495636614297  0.1181457928306173  0.7712772137894319
  0.4578655421974389  0.6169512569094380  0.2723323580467536
  0.4582078750454670  0.6193242250760704  0.7728095812231786
  0.9578255109928833  0.1183495487794701  0.2706129458291926
  0.9581482513623882  0.1183115285428400  0.7707670218946276
  0.9575393110406978  0.6185770705030151  0.2707101666328029
  0.9584767482014556  0.6184187618806831  0.7706974781868041
  0.2702287992803534  0.2066142758027851  0.3677610768797592
  0.2700234094395100  0.2078595136846815  0.8683562208724425
  0.2703838225487871  0.7088793626591396  0.3682228186718532
  0.2703065685204393  0.7078141064126982  0.8686174332032124
  0.7698055754820388  0.2081693758231893  0.3684812032622418
  0.7710847251867321  0.2080624894202430  0.8684844214351131
  0.7704428753764105  0.7086099655450653  0.3683829676839281
  0.7706269022752323  0.7081974911359055  0.8685775413493673
  0.0205670725217857  0.2080490669261081  0.1183391619145624
  0.0204364334124847  0.2076159114545675  0.6183702791771637
  0.0199980096119958  0.7082143506749432  0.1184102134308986
  0.0205466732105961  0.7082463400495840  0.6184853458081676
  0.5208375782997408  0.2073844561129192  0.1169004622886050
  0.5200888977187219  0.2079538778959886  0.6194906023093409
  0.5200392117751775  0.7074678793586529  0.1188208174999090
  0.5208684390329097  0.7093291772131991  0.6191953289394121
  0.2705066361198192  0.4580402844968603  0.1183847373509224
  0.2723324251186199  0.4578648958067575  0.6169510913161034
  0.2706126957210557  0.9578260385651447  0.1183486012249517
  0.2707104719794984  0.9575389602928155  0.6185766587045549
  0.7712773481629185  0.4579495475018334  0.1181455043307622
  0.7728084539978752  0.4582072468206277  0.6193241530272005
  0.7707669213259294  0.9581482697472978  0.1183119341881209
  0.7706978201788388  0.9584767678567658  0.6184188110948057
  0.0204863608796160  0.4579543946804066  0.3682418625664283
  0.0212840222725745  0.4580253359457132  0.8683842432156510
  0.0204937997246404  0.9581739754345975  0.3684607248469902
  0.0206145554889332  0.9579338055737168  0.8685783351069176
  0.5316416555407244  0.4553423126195639  0.3698247912656143
  0.5205338787145379  0.4584759792469981  0.8690455373341166
  0.5208397825406976  0.9587806522204829  0.3683122911295200
  0.5206231591366830  0.9577158778111112  0.8687977819353137
  0.3677604334598001  0.2702287796581970  0.2066139613699391
  0.3682232189558121  0.2703837533037756  0.7088793276373053
  0.3684808586611084  0.7698058070140377  0.2081690450812630
  0.3683829021543588  0.7704422347304458  0.7086100743482220
  0.8683552331277582  0.2700242813840319  0.2078599557132890
  0.8686170768844903  0.2703070985669811  0.7078140258865133
  0.8684840743404578  0.7710847685736013  0.2080620832010780
  0.8685769865947321  0.7706265493580204  0.7081978644272269
  0.1183842127924066  0.2705060799243810  0.4580400805997584
  0.1183478588040643  0.2706134426401121  0.9578262436323399
  0.1181454692830641  0.7712775452297862  0.4579492535518028
  0.1183112858167874  0.7707673373494401  0.9581483530372168
  0.6169505843008594  0.2723327128213384  0.4578643576053025
  0.6185765976411162  0.2707106463927644  0.9575391479870845
  0.6193244207901785  0.7728088649943032  0.4582065443723664
  0.6184186734522186  0.7706975107412717  0.9584765052455495
  0.3682419195138422  0.0204864427979530  0.4579543290999410
  0.3684591085912743  0.0204944335828898  0.9581745859722020
  0.3698257586385907  0.5316432868063217  0.4553432894184297
  0.3683121173023522  0.5208399244710478  0.9587809106059737
  0.8683838607025010  0.0212844741470093  0.4580259464793031
  0.8685770965059376  0.0206158288823914  0.9579332565466601
  0.8690447403798984  0.5205338763215224  0.4584757611483781
  0.8687977996997702  0.5206235685465117  0.9577157332699571
  0.1183384761646877  0.0205665366732504  0.2080495030099883
  0.1184096392975889  0.0199978296574912  0.7082140134468276
  0.1169005344624736  0.5208378781041461  0.2073842877549126
  0.1188204275617935  0.5200393590958896  0.7074678250130475
  0.6183702551329802  0.0204370845419035  0.2076154726995796
  0.6184855867493582  0.0205467187186983  0.7082463931048650
  0.6194902085038194  0.5200894124616440  0.2079503950824133
  0.6191951601400660  0.5208682607717847  0.7093291612352388
  0.2074741980683399  0.2702510994625200  0.1180959648233681
  0.2079381614524536  0.2708198944994393  0.6178431199041228
  0.2077663384419353  0.7701564875467781  0.1183374414855507
  0.2077829643678939  0.7711544034618356  0.6189366833427030
  0.7076174137708620  0.2703469507438854  0.1183400397785448
  0.7077670533263003  0.2703483606507149  0.6186348481511743
  0.7080929171869244  0.7708946626868283  0.1183921464324982
  0.7083417520000737  0.7709765875281320  0.6186426416744339
  0.4544675909825386  0.2733666631393916  0.3647880251096325
  0.4578521542549510  0.2700834774075744  0.8681371707876693
  0.4581073321101456  0.7706384222431950  0.3681872204933256
  0.4580544456606006  0.7714026792673039  0.8691544484370723
  0.9578846393505174  0.2706519044169795  0.3684222891505513
  0.9580336586034193  0.2705499003449390  0.8684011461478676
  0.9581289681149698  0.7709629598451855  0.3683446667766290
  0.9579365667171729  0.7706713837321857  0.8684605551243507
  0.2079035165692886  0.0202959326866718  0.3682448230255488
  0.2080621952929178  0.0207189920075805  0.8684533583329070
  0.2064295504983349  0.5197627721491997  0.3681291352622225
  0.2083063368089739  0.5205693234665958  0.8680351424001103
  0.7079516196669999  0.0205767944461854  0.3682916599283601
  0.7080984423506038  0.0204751590655263  0.8684383970846454
  0.7097127307958928  0.5206300493727838  0.3688668549607570
  0.7086291466179873  0.5203984569984570  0.8686578182039142
  0.4579399906878621  0.0204684857425264  0.1184766209419266
  0.4580251855388653  0.0205202767447972  0.6188453151902422
  0.4590232405760730  0.5208163915647646  0.1184723321519243
  0.4585369836534881  0.5243125300248366  0.6214845351585012
  0.9580136704823232  0.0205820065070057  0.1184507356511517
  0.9579801981252132  0.0207681856988771  0.6185996852092401
  0.9580857531413542  0.5208976945316763  0.1180928214766936
  0.9583466591214815  0.5207089630253847  0.6187100332241187
  0.1180957854455045  0.2074747144246842  0.2702500333651017
  0.1183371420165500  0.2077666932150279  0.7701570753481946
  0.1183390032961640  0.7076188728100234  0.2703472580291262
  0.1183918851674903  0.7080930805473713  0.7708945258075772
  0.6178421957394491  0.2079385380539662  0.2708212014855036
  0.6189369877211135  0.2077827616816421  0.7711544759173279
  0.6186350521275941  0.7077674703699657  0.2703486923167091
  0.6186426051253378  0.7083423163075651  0.7709783054159303
  0.3682448206384663  0.2079036728877313  0.0202959100729316
  0.3681285218407524  0.2064299227864694  0.5197627194201502
  0.3682916672794718  0.7079517022962278  0.0205767051842543
  0.3688677217918155  0.7097134017152129  0.5206300289134660
  0.8684530245634932  0.2080619336818756  0.0207196658118463
  0.8680348509341158  0.2083067058928734  0.5205691065952607
  0.8684382729249052  0.7081000241919142  0.0204772637706228
  0.8686577373909046  0.7086291388496448  0.5203984885767596
  0.1184753315616618  0.4579393830428558  0.0204726570284919
  0.1184718490407946  0.4590239680604569  0.5208167602357676
  0.1184500502394670  0.9580133912191471  0.0205820144051714
  0.1180925491461409  0.9580855302885780  0.5208978752187363
  0.6188454176593936  0.4580252397702722  0.0205205379911888
  0.6214842917251175  0.4585374558820945  0.5243115792622604
  0.6185979007020705  0.9579818828488200  0.0207677439902980
  0.6187104076539498  0.9583471455178696  0.5207092186180589
  0.3647883953603142  0.4544708265395911  0.2733690866107352
  0.3681874879929339  0.4581074312571616  0.7706386534692129
  0.3684222351138544  0.9578843080175261  0.2706524060256683
  0.3683448798275109  0.9581291730926722  0.7709630716608231
  0.8681371159544540  0.4578528458722744  0.2700835905155117
  0.8691554030999242  0.4580550136100499  0.7714026427055884
  0.8684009992054840  0.9580344412224164  0.2705500710261006
  0.8684604922425265  0.9579352918070185  0.7706737800632766
  0.2702507855868035  0.1180951208989498  0.2074746253100841
  0.2703474358991187  0.1183387751633020  0.7076191673083372
  0.2708207311181354  0.6178427624547567  0.2079381006629646
  0.2703489679816187  0.6186346891994745  0.7077672917932532
  0.7701564238889560  0.1183377734613558  0.2077669389015924
  0.7708953129099783  0.1183913889447368  0.7080939253033094
  0.7711545461569216  0.6189366521753499  0.2077825834038052
  0.7709781519210637  0.6186420023214012  0.7083419933371431
  0.0204725747254813  0.1184751635841721  0.4579390464735056
  0.0205821072863088  0.1184501064463745  0.9580141255565096
  0.0205204722960062  0.6188453815373833  0.4580250327350655
  0.0207680282479927  0.6185996363089359  0.9579816496702165
  0.5208166369824596  0.1184721587594169  0.4590241362754597
  0.5208975852245743  0.1180926240417932  0.9580861921205255
  0.5243123783827315  0.6214841231006289  0.4585375551232787
  0.5207095953566920  0.6187099598429029  0.9583473442223891
  0.2733666684548410  0.3647869549725584  0.4544701762363914
  0.2706524199233371  0.3684222425008912  0.9578848414739696
  0.2700835217888553  0.8681370040805731  0.4578523231482023
  0.2705500717662161  0.8684006377719768  0.9580343318538098
  0.7706384059336813  0.3681874138016923  0.4581073043376520
  0.7709628887585964  0.3683447122231414  0.9581293133544264
  0.7714027010777897  0.8691552531719040  0.4580550045562362
  0.7706718058528068  0.8684601389062010  0.9579368422670882
  0.0202961758384177  0.3682451427349207  0.2079037520615259
  0.0205761277240413  0.3682914425851891  0.7079523024694296
  0.0207190826891406  0.8684533244118100  0.2080623503664043
  0.0204762550424178  0.8684380414683517  0.7080995182589191
  0.5197606371902950  0.3681294759644302  0.2064339865055587
  0.5206302011550790  0.3688675033721580  0.7097135933438281
  0.5205697972377976  0.8680345946814185  0.2083068240169226
  0.5203985644669800  0.8686576013265466  0.7086292425642213
 
  0.00000000E+00  0.00000000E+00  0.00000000E+00
  0.00000000E+00  0.00000000E+00  0.00000000E+00
  0.00000000E+00  0.00000000E+00  0.00000000E+00
  0.00000000E+00  0.00000000E+00  0.00000000E+00
  0.00000000E+00  0.00000000E+00  0.00000000E+00
  0.00000000E+00  0.00000000E+00  0.00000000E+00
  0.00000000E+00  0.00000000E+00  0.00000000E+00
  0.00000000E+00  0.00000000E+00  0.00000000E+00
  0.00000000E+00  0.00000000E+00  0.00000000E+00
  0.00000000E+00  0.00000000E+00  0.00000000E+00
  0.00000000E+00  0.00000000E+00  0.00000000E+00
  0.00000000E+00  0.00000000E+00  0.00000000E+00
  0.00000000E+00  0.00000000E+00  0.00000000E+00
  0.00000000E+00  0.00000000E+00  0.00000000E+00
  0.00000000E+00  0.00000000E+00  0.00000000E+00
  0.00000000E+00  0.00000000E+00  0.00000000E+00
  0.00000000E+00  0.00000000E+00  0.00000000E+00
  0.00000000E+00  0.00000000E+00  0.00000000E+00
  0.00000000E+00  0.00000000E+00  0.00000000E+00
  0.00000000E+00  0.00000000E+00  0.00000000E+00
  0.00000000E+00  0.00000000E+00  0.00000000E+00
  0.00000000E+00  0.00000000E+00  0.00000000E+00
  0.00000000E+00  0.00000000E+00  0.00000000E+00
  0.00000000E+00  0.00000000E+00  0.00000000E+00
  0.00000000E+00  0.00000000E+00  0.00000000E+00
  0.00000000E+00  0.00000000E+00  0.00000000E+00
  0.00000000E+00  0.00000000E+00  0.00000000E+00
  0.00000000E+00  0.00000000E+00  0.00000000E+00
  0.00000000E+00  0.00000000E+00  0.00000000E+00
  0.00000000E+00  0.00000000E+00  0.00000000E+00
  0.00000000E+00  0.00000000E+00  0.00000000E+00
  0.00000000E+00  0.00000000E+00  0.00000000E+00
  0.00000000E+00  0.00000000E+00  0.00000000E+00
  0.00000000E+00  0.00000000E+00  0.00000000E+00
  0.00000000E+00  0.00000000E+00  0.00000000E+00
  0.00000000E+00  0.00000000E+00  0.00000000E+00
  0.00000000E+00  0.00000000E+00  0.00000000E+00
  0.00000000E+00  0.00000000E+00  0.00000000E+00
  0.00000000E+00  0.00000000E+00  0.00000000E+00
  0.00000000E+00  0.00000000E+00  0.00000000E+00
  0.00000000E+00  0.00000000E+00  0.00000000E+00
  0.00000000E+00  0.00000000E+00  0.00000000E+00
  0.00000000E+00  0.00000000E+00  0.00000000E+00
  0.00000000E+00  0.00000000E+00  0.00000000E+00
  0.00000000E+00  0.00000000E+00  0.00000000E+00
  0.00000000E+00  0.00000000E+00  0.00000000E+00
  0.00000000E+00  0.00000000E+00  0.00000000E+00
  0.00000000E+00  0.00000000E+00  0.00000000E+00
  0.00000000E+00  0.00000000E+00  0.00000000E+00
  0.00000000E+00  0.00000000E+00  0.00000000E+00
  0.00000000E+00  0.00000000E+00  0.00000000E+00
  0.00000000E+00  0.00000000E+00  0.00000000E+00
  0.00000000E+00  0.00000000E+00  0.00000000E+00
  0.00000000E+00  0.00000000E+00  0.00000000E+00
  0.00000000E+00  0.00000000E+00  0.00000000E+00
  0.00000000E+00  0.00000000E+00  0.00000000E+00
  0.00000000E+00  0.00000000E+00  0.00000000E+00
  0.00000000E+00  0.00000000E+00  0.00000000E+00
  0.00000000E+00  0.00000000E+00  0.00000000E+00
  0.00000000E+00  0.00000000E+00  0.00000000E+00
  0.00000000E+00  0.00000000E+00  0.00000000E+00
  0.00000000E+00  0.00000000E+00  0.00000000E+00
  0.00000000E+00  0.00000000E+00  0.00000000E+00
  0.00000000E+00  0.00000000E+00  0.00000000E+00
  0.00000000E+00  0.00000000E+00  0.00000000E+00
  0.00000000E+00  0.00000000E+00  0.00000000E+00
  0.00000000E+00  0.00000000E+00  0.00000000E+00
  0.00000000E+00  0.00000000E+00  0.00000000E+00
  0.00000000E+00  0.00000000E+00  0.00000000E+00
  0.00000000E+00  0.00000000E+00  0.00000000E+00
  0.00000000E+00  0.00000000E+00  0.00000000E+00
  0.00000000E+00  0.00000000E+00  0.00000000E+00
  0.00000000E+00  0.00000000E+00  0.00000000E+00
  0.00000000E+00  0.00000000E+00  0.00000000E+00
  0.00000000E+00  0.00000000E+00  0.00000000E+00
  0.00000000E+00  0.00000000E+00  0.00000000E+00
  0.00000000E+00  0.00000000E+00  0.00000000E+00
  0.00000000E+00  0.00000000E+00  0.00000000E+00
  0.00000000E+00  0.00000000E+00  0.00000000E+00
  0.00000000E+00  0.00000000E+00  0.00000000E+00
  0.00000000E+00  0.00000000E+00  0.00000000E+00
  0.00000000E+00  0.00000000E+00  0.00000000E+00
  0.00000000E+00  0.00000000E+00  0.00000000E+00
  0.00000000E+00  0.00000000E+00  0.00000000E+00
  0.00000000E+00  0.00000000E+00  0.00000000E+00
  0.00000000E+00  0.00000000E+00  0.00000000E+00
  0.00000000E+00  0.00000000E+00  0.00000000E+00
  0.00000000E+00  0.00000000E+00  0.00000000E+00
  0.00000000E+00  0.00000000E+00  0.00000000E+00
  0.00000000E+00  0.00000000E+00  0.00000000E+00
  0.00000000E+00  0.00000000E+00  0.00000000E+00
  0.00000000E+00  0.00000000E+00  0.00000000E+00
  0.00000000E+00  0.00000000E+00  0.00000000E+00
  0.00000000E+00  0.00000000E+00  0.00000000E+00
  0.00000000E+00  0.00000000E+00  0.00000000E+00
  0.00000000E+00  0.00000000E+00  0.00000000E+00
  0.00000000E+00  0.00000000E+00  0.00000000E+00
  0.00000000E+00  0.00000000E+00  0.00000000E+00
  0.00000000E+00  0.00000000E+00  0.00000000E+00
  0.00000000E+00  0.00000000E+00  0.00000000E+00
  0.00000000E+00  0.00000000E+00  0.00000000E+00
  0.00000000E+00  0.00000000E+00  0.00000000E+00
  0.00000000E+00  0.00000000E+00  0.00000000E+00
  0.00000000E+00  0.00000000E+00  0.00000000E+00
  0.00000000E+00  0.00000000E+00  0.00000000E+00
  0.00000000E+00  0.00000000E+00  0.00000000E+00
  0.00000000E+00  0.00000000E+00  0.00000000E+00
  0.00000000E+00  0.00000000E+00  0.00000000E+00
  0.00000000E+00  0.00000000E+00  0.00000000E+00
  0.00000000E+00  0.00000000E+00  0.00000000E+00
  0.00000000E+00  0.00000000E+00  0.00000000E+00
  0.00000000E+00  0.00000000E+00  0.00000000E+00
  0.00000000E+00  0.00000000E+00  0.00000000E+00
  0.00000000E+00  0.00000000E+00  0.00000000E+00
  0.00000000E+00  0.00000000E+00  0.00000000E+00
  0.00000000E+00  0.00000000E+00  0.00000000E+00
  0.00000000E+00  0.00000000E+00  0.00000000E+00
  0.00000000E+00  0.00000000E+00  0.00000000E+00
  0.00000000E+00  0.00000000E+00  0.00000000E+00
  0.00000000E+00  0.00000000E+00  0.00000000E+00
  0.00000000E+00  0.00000000E+00  0.00000000E+00
  0.00000000E+00  0.00000000E+00  0.00000000E+00
  0.00000000E+00  0.00000000E+00  0.00000000E+00
  0.00000000E+00  0.00000000E+00  0.00000000E+00
  0.00000000E+00  0.00000000E+00  0.00000000E+00
  0.00000000E+00  0.00000000E+00  0.00000000E+00
  0.00000000E+00  0.00000000E+00  0.00000000E+00
  0.00000000E+00  0.00000000E+00  0.00000000E+00
  0.00000000E+00  0.00000000E+00  0.00000000E+00
  0.00000000E+00  0.00000000E+00  0.00000000E+00
  0.00000000E+00  0.00000000E+00  0.00000000E+00
  0.00000000E+00  0.00000000E+00  0.00000000E+00
  0.00000000E+00  0.00000000E+00  0.00000000E+00
  0.00000000E+00  0.00000000E+00  0.00000000E+00
  0.00000000E+00  0.00000000E+00  0.00000000E+00
  0.00000000E+00  0.00000000E+00  0.00000000E+00
  0.00000000E+00  0.00000000E+00  0.00000000E+00
  0.00000000E+00  0.00000000E+00  0.00000000E+00
  0.00000000E+00  0.00000000E+00  0.00000000E+00
  0.00000000E+00  0.00000000E+00  0.00000000E+00
  0.00000000E+00  0.00000000E+00  0.00000000E+00
  0.00000000E+00  0.00000000E+00  0.00000000E+00
  0.00000000E+00  0.00000000E+00  0.00000000E+00
  0.00000000E+00  0.00000000E+00  0.00000000E+00
  0.00000000E+00  0.00000000E+00  0.00000000E+00
  0.00000000E+00  0.00000000E+00  0.00000000E+00
  0.00000000E+00  0.00000000E+00  0.00000000E+00
  0.00000000E+00  0.00000000E+00  0.00000000E+00
  0.00000000E+00  0.00000000E+00  0.00000000E+00
  0.00000000E+00  0.00000000E+00  0.00000000E+00
  0.00000000E+00  0.00000000E+00  0.00000000E+00
  0.00000000E+00  0.00000000E+00  0.00000000E+00
  0.00000000E+00  0.00000000E+00  0.00000000E+00
  0.00000000E+00  0.00000000E+00  0.00000000E+00
  0.00000000E+00  0.00000000E+00  0.00000000E+00
  0.00000000E+00  0.00000000E+00  0.00000000E+00
  0.00000000E+00  0.00000000E+00  0.00000000E+00
  0.00000000E+00  0.00000000E+00  0.00000000E+00
  0.00000000E+00  0.00000000E+00  0.00000000E+00
  0.00000000E+00  0.00000000E+00  0.00000000E+00
  0.00000000E+00  0.00000000E+00  0.00000000E+00
  0.00000000E+00  0.00000000E+00  0.00000000E+00
  0.00000000E+00  0.00000000E+00  0.00000000E+00
  0.00000000E+00  0.00000000E+00  0.00000000E+00
  0.00000000E+00  0.00000000E+00  0.00000000E+00
  0.00000000E+00  0.00000000E+00  0.00000000E+00
  0.00000000E+00  0.00000000E+00  0.00000000E+00
  0.00000000E+00  0.00000000E+00  0.00000000E+00
  0.00000000E+00  0.00000000E+00  0.00000000E+00
  0.00000000E+00  0.00000000E+00  0.00000000E+00
  0.00000000E+00  0.00000000E+00  0.00000000E+00
  0.00000000E+00  0.00000000E+00  0.00000000E+00
  0.00000000E+00  0.00000000E+00  0.00000000E+00
  0.00000000E+00  0.00000000E+00  0.00000000E+00
  0.00000000E+00  0.00000000E+00  0.00000000E+00
  0.00000000E+00  0.00000000E+00  0.00000000E+00
  0.00000000E+00  0.00000000E+00  0.00000000E+00
  0.00000000E+00  0.00000000E+00  0.00000000E+00
  0.00000000E+00  0.00000000E+00  0.00000000E+00
  0.00000000E+00  0.00000000E+00  0.00000000E+00
  0.00000000E+00  0.00000000E+00  0.00000000E+00
  0.00000000E+00  0.00000000E+00  0.00000000E+00
  0.00000000E+00  0.00000000E+00  0.00000000E+00
  0.00000000E+00  0.00000000E+00  0.00000000E+00
  0.00000000E+00  0.00000000E+00  0.00000000E+00
  0.00000000E+00  0.00000000E+00  0.00000000E+00
  0.00000000E+00  0.00000000E+00  0.00000000E+00
  0.00000000E+00  0.00000000E+00  0.00000000E+00
  0.00000000E+00  0.00000000E+00  0.00000000E+00
  0.00000000E+00  0.00000000E+00  0.00000000E+00
  0.00000000E+00  0.00000000E+00  0.00000000E+00
  0.00000000E+00  0.00000000E+00  0.00000000E+00
  0.00000000E+00  0.00000000E+00  0.00000000E+00
  0.00000000E+00  0.00000000E+00  0.00000000E+00
  0.00000000E+00  0.00000000E+00  0.00000000E+00
  0.00000000E+00  0.00000000E+00  0.00000000E+00
  0.00000000E+00  0.00000000E+00  0.00000000E+00
  0.00000000E+00  0.00000000E+00  0.00000000E+00
  0.00000000E+00  0.00000000E+00  0.00000000E+00
  0.00000000E+00  0.00000000E+00  0.00000000E+00
  0.00000000E+00  0.00000000E+00  0.00000000E+00
  0.00000000E+00  0.00000000E+00  0.00000000E+00
  0.00000000E+00  0.00000000E+00  0.00000000E+00
  0.00000000E+00  0.00000000E+00  0.00000000E+00
  0.00000000E+00  0.00000000E+00  0.00000000E+00
  0.00000000E+00  0.00000000E+00  0.00000000E+00
  0.00000000E+00  0.00000000E+00  0.00000000E+00