Li95 Ta33 O128                          
   1.00000000000000     
    11.3805060000000005    0.0067560000000000   -3.8448400000000000
     1.3117719999999999   11.3046539999999993    3.8448410000000002
    -0.0280210000000000    0.0314430000000000   18.5912410000000001
   Li   Ta   O 
    95    33   128
Direct
  0.2829274509489537  0.0983606648960986  0.4423186883558827
  0.2839110545652517  0.0976722682610429  0.9430323124216500
  0.2833277675666537  0.5974217913022670  0.9427186087824708
  0.7839259475342288  0.0971417376987773  0.4424124278751052
  0.7843083111458284  0.0984571637365264  0.9430495825627290
  0.7945479564812246  0.6013542660906168  0.4412284821586709
  0.7852808443587449  0.5971734971038885  0.9439724660112034
  0.0987768005544538  0.2893097199628230  0.3075303037380479
  0.0963544659514710  0.2840284995296614  0.8069534141814003
  0.0938948388898169  0.7926008218900833  0.3015199947727183
  0.0971943290993451  0.7832231515711356  0.8077439931601518
  0.5980405474060859  0.2838434093872095  0.3067658003992619
  0.5987293258819122  0.2831627785348516  0.8083642628359584
  0.6008284133904240  0.7858824458320939  0.3051454122651123
  0.5986512814236491  0.7844297240433704  0.8076351382155735
  0.2149464329525443  0.4031406654197838  0.0568752234557337
  0.2148183926577616  0.3884973849000559  0.5657380889671444
  0.2159419692452289  0.9024308501650324  0.0576592321144673
  0.2158394705346112  0.9038208445577780  0.5577799299234201
  0.7181988513227040  0.4032845539273637  0.0591873248108001
  0.7190954566719654  0.4011261816091647  0.5571779326818884
  0.7161500436488382  0.9028019149666378  0.0569632338477319
  0.7166086843808017  0.9036668342664953  0.5560858173054157
  0.4024500586513255  0.2161708395379662  0.1932476769096922
  0.4014708850729463  0.2131684609763127  0.6941346327155600
  0.4001987326152516  0.7173172599735125  0.1921481735883788
  0.4021013476473527  0.7167053139268589  0.6928699435463486
  0.9020370648758202  0.2190135786936196  0.1926012501626317
  0.9042506419967324  0.2166306238076245  0.6924372644833667
  0.9029356531574351  0.7151536945671353  0.1918640714397455
  0.9036727035422771  0.7156292781548430  0.6926713319228384
  0.1774285965457238  0.2220735538888547  0.1871903998553890
  0.1757950289161485  0.2151740663807047  0.6887401070832624
  0.1747643003068546  0.7174562530972253  0.1889430361782090
  0.1763242615522245  0.7199444442701193  0.6883318051110479
  0.6802042683534424  0.2210561509537072  0.1878204629326490
  0.6840058135129752  0.2168776627902673  0.6887581996267684
  0.6794460386998722  0.7205973925261233  0.1873295058370132
  0.6800757039213110  0.7206677401597972  0.6871806467039931
  0.2189385980089185  0.1793223270145248  0.0623464500642115
  0.2184996375282680  0.1727173408914098  0.5631620481737727
  0.2183554068787430  0.6780824989051553  0.0627239343734374
  0.2163534634152100  0.6838301645404954  0.5640936008207689
  0.7197646687792698  0.1797723326487244  0.0621321676708391
  0.7219940889975547  0.1772214298777541  0.5616986360105329
  0.7197807729217658  0.6781173233863100  0.0623297898215256
  0.7232704644546146  0.6806466328791672  0.5626252369100158
  0.3171986879955213  0.2863089847507823  0.3130450157914240
  0.3204468693092792  0.2799165431951209  0.8126244225640846
  0.3260662716155238  0.7889331501710757  0.3105381453111207
  0.3211034521234097  0.7798432590022131  0.8129048592012467
  0.8251323483752131  0.2824076669261828  0.3120115104191896
  0.8228298214797363  0.2818402407450833  0.8124289440887296
  0.8360514088855098  0.7715414455362932  0.3148385318510947
  0.8234401142780570  0.7810673621589501  0.8125642407410112
  0.2727283163837910  0.3233311253230440  0.4366650890865031
  0.2800099027051957  0.3221964773272390  0.9373770789994325
  0.2769622243105658  0.8404208854403166  0.4375010427042056
  0.2802772299950576  0.8213637826769684  0.9377876976026585
  0.7835247726981862  0.3205659308766968  0.4377040487348935
  0.7808631954225902  0.3239152282631110  0.9376111183727502
  0.7915917252710116  0.8214156652153335  0.4355047378225194
  0.7813697498958518  0.8215840980688043  0.9375309305735868
  0.0300269025141588  0.3411040326325647  0.4344094124347038
  0.0283213557871349  0.3482051651487410  0.9323905612297096
  0.0265632151188342  0.8401126028743988  0.4305932016036351
  0.0292023930819241  0.8472485440205446  0.9324881760138553
  0.5265872022184723  0.3460331145059143  0.4294477319133279
  0.5292079425190508  0.3476499313499701  0.9324790224514814
  0.5306918180469395  0.8513522289883468  0.4320943766359022
  0.5293552696726209  0.8477824947785777  0.9322150062733101
  0.3460456710330178  0.0323384623790020  0.3160758135575605
  0.3477266337784357  0.0279062483548671  0.8186819928282674
  0.3400427037601546  0.5276667411226512  0.3118152852606855
  0.3466957112268574  0.5287171908595028  0.8190992689290368
  0.8476436734890598  0.0277946805201879  0.3173656522710573
  0.8487077385848707  0.0282804083767161  0.8185623600915193
  0.8450065533022126  0.5285341097470209  0.3175576345227071
  0.8483222056028268  0.5289082783026160  0.8179372440397543
  0.4717919587024184  0.1525495054996568  0.0680063093459751
  0.4699217932479911  0.1493349692162695  0.5679767321010019
  0.4712281954911717  0.6526979704100739  0.0678453214219843
  0.4744297078124475  0.6534480842607664  0.5693075192627290
  0.9708207241933806  0.1539820188184251  0.0676265996992598
  0.9712570930880418  0.1525751612051138  0.5681191639755099
  0.9736792895623054  0.6517887045670392  0.0699610071569907
  0.9722455363254667  0.6524035617941806  0.5603324636370388
  0.1512524443580148  0.4732472681845863  0.1890494592771645
  0.1492747332134385  0.4722579957954167  0.6806903346026516
  0.1521715773442338  0.9736272258260641  0.1807293265573477
  0.1523416724194249  0.9702091601916791  0.6826038202697617
  0.6548244868252269  0.4708703905004299  0.1812719338267925
  0.6536170406578066  0.4715934154746719  0.6825671335244223
  0.6531013159562349  0.9707534660740862  0.1822576969440277
  0.6531265638188017  0.9713049131380345  0.6823122386055473
  0.2631293767679210  0.5919603721707034  0.4349615590428044
  0.3878320656580954  0.4687083018100111  0.1867094298144067
  0.3884974170910738  0.4693318650935154  0.6887217112256394
  0.3896405701910695  0.9703734171710536  0.1869053520393607
  0.3901947229813985  0.9678444123968504  0.6886556405839244
  0.8922961423880835  0.4728741355300272  0.1880145561182829
  0.8891407326349210  0.4697874984985972  0.6866828857487235
  0.8881564732557763  0.9704598956725619  0.1863548978385339
  0.8899765332678626  0.9687048525423805  0.6875937073677747
  0.4690953033093308  0.3894938005633222  0.0623410817412164
  0.4725256442253354  0.3831959233856352  0.5657444621644458
  0.4690715380331199  0.8896554193109125  0.0622137016283446
  0.4699938960446062  0.8896605568822977  0.5631621290172077
  0.9695585576454988  0.3904786293180322  0.0631202522409140
  0.9706572029095923  0.3896244891903464  0.5628024431947622
  0.9688038848311891  0.8901057117802296  0.0619477368377304
  0.9694752014551682  0.8882628444337755  0.5626526683730404
  0.1092024983115039  0.0341143087247886  0.3106956772473879
  0.1105513781977479  0.0301197748656747  0.8130825333361429
  0.1031135906089986  0.5328849131874662  0.3191789668499325
  0.1096702827349532  0.5305439040647144  0.8123652393189573
  0.6111817546301168  0.0307798691522407  0.3123917407006687
  0.6112792791070092  0.0310850976034232  0.8126791873273120
  0.6084326249778016  0.5315402149867623  0.3107396596745033
  0.6104753994379024  0.5323853830694318  0.8121013102735404
  0.0305838510744181  0.1077310879289968  0.4375093713659908
  0.0309008271510081  0.1111763627549607  0.9375379446561283
  0.0386504751558405  0.5983389434008828  0.4348925616018846
  0.0306943836131808  0.6105853846827287  0.9376796581329145
  0.5299096987909664  0.1109024289098102  0.4367811325569093
  0.5309301329820499  0.1108776100525120  0.9375248430715075
  0.5369396816212486  0.6095080713655250  0.4375561839737685
  0.5310070112337471  0.6106291851880883  0.9375368674536588
  0.3555373992002160  0.0218662546554071  0.0682293988384401
  0.3551422864448170  0.0201920294903459  0.5694405366339907
  0.3547194005941208  0.5214981000647612  0.0682448937629943
  0.3499100687603161  0.5215603539982041  0.5654242448453317
  0.8548747483743355  0.0225210306601582  0.0676739550321628
  0.8552522089693397  0.0207428898925599  0.5686604130575219
  0.8552435478423277  0.5219729468176126  0.0683965522904089
  0.8531845940428724  0.5205051010587454  0.5679164694561010
  0.0212356502489826  0.3551099190437483  0.1815880758019190
  0.0196198882094336  0.3540499778064898  0.6821688736149412
  0.0211414111910670  0.8567698921350342  0.1805617120951695
  0.0210896643948999  0.8542861472686241  0.6816874567691400
  0.5208505095062890  0.3558369000347525  0.1811746505579848
  0.5205526672816347  0.3568351550967819  0.6810929068395168
  0.5213736364394705  0.8555402953253051  0.1810515199002154
  0.5221414129144435  0.8545125925964498  0.6819264815169319
  0.1609786001546567  0.4466420702623424  0.4473089498583391
  0.1446471914116643  0.4788579789765208  0.9313131035925934
  0.1461259296401280  0.9782446312423119  0.4305427741010845
  0.1450517610515405  0.9788631897898270  0.9317014127792405
  0.6390098939457758  0.4782808029447168  0.4315641919579747
  0.6446428747847150  0.4790956851565511  0.9305860801110626
  0.6440010713777866  0.9794217378564625  0.4312106260775437
  0.6451724761550039  0.9795116657784035  0.9313414000085274
  0.4786902364199932  0.1446352243379039  0.3184228682986188
  0.4791938787760230  0.1450476676565557  0.8184379823016812
  0.4786898884605293  0.6454353713069167  0.3190915929354361
  0.4786680828465961  0.6446555050494851  0.8182782891632669
  0.9777358130709430  0.1440515864775165  0.3184642629485808
  0.9790231306067696  0.1447439019801422  0.8186342805121427
  0.9656260067539648  0.6502630904869946  0.3129161642094758
  0.9787301354771216  0.6451387635182755  0.8184424612583427
  0.2111605766852023  0.1535620986148487  0.3086366309861432
  0.2118923695300197  0.1504981338023512  0.8094075842306125
  0.2185334639891110  0.6595811792385788  0.3105566439421423
  0.2116989934783930  0.6506029452852715  0.8092302733873495
  0.7120680740654279  0.1511289585169067  0.3092398434493191
  0.7121693742423716  0.1517495513745146  0.8087585488897844
  0.7111802513757581  0.6500678217743001  0.3101101486171913
  0.7117035907848646  0.6517267572949379  0.8082280094201195
  0.1512962919788947  0.2079868733326862  0.4418120436841804
  0.1511359472560017  0.2124462487815961  0.9406667632178625
  0.1596084195457550  0.7193343601363580  0.4428095604949078
  0.1510959896960244  0.7120433626577878  0.9407489325913829
  0.6500805587257261  0.2120978434636811  0.4404008851418624
  0.6506773052727439  0.2129961506506035  0.9403124877356888
  0.6505934402590512  0.7140308557501243  0.4411026492492454
  0.6512596404220901  0.7118950156899828  0.9404651199123251
  0.2877217219121704  0.3487041409476106  0.1906851556082358
  0.2885437934946751  0.3478651065577409  0.6909302130524111
  0.2878933863706337  0.8506340260461016  0.1897144074898307
  0.2887788472103523  0.8477412291235851  0.6917237585950531
  0.7896602339141339  0.3507980555122856  0.1908681509164083
  0.7871956518012055  0.3494827636700251  0.6906437729316721
  0.7866857769284792  0.8509502862784259  0.1890496417462941
  0.7880694666711250  0.8489220264121187  0.6907364922127357
  0.3489655422618156  0.2883178751865358  0.0589120801207628
  0.3540302579738324  0.2815114807889643  0.5638868590706494
  0.3489295003759452  0.7882339242564385  0.0590695919140316
  0.3498274596642403  0.7881631540214542  0.5602747402380359
  0.8489364950355238  0.2892891283804460  0.0588538673663308
  0.8480509375946994  0.2886357834438726  0.5587043091463642
  0.8483614180513968  0.7892496603865879  0.0584168571148780
  0.8487266165577054  0.7880764026966673  0.5587008628134313
  0.0897322699502325  0.2861062509548304  0.0656159833208250
  0.0885726583531508  0.2786847376281045  0.5693961907719753
  0.0896236416206975  0.7857916264502904  0.0656219440380426
  0.0913191743007147  0.7847258730838149  0.5673463794027143
  0.5900156756233415  0.2855276242493616  0.0659465570107685
  0.5913308678404832  0.2837359909267079  0.5654814561438570
  0.5895142368070196  0.7854696486937556  0.0653660462313326
  0.5893726396361814  0.7845651831149070  0.5653381753994466
  0.2853719536053347  0.0909628670514522  0.1836944061665591
  0.2853610080703604  0.0878027755933459  0.6853225855527185
  0.2852998061895917  0.5903367456854838  0.1842874713929632
  0.2839397860914374  0.5900412710931278  0.6834741834788716
  0.7846902729913978  0.0910146943140688  0.1836561114065347
  0.7855654785371371  0.0896454906094988  0.6838856729261664
  0.7827872742338684  0.5902961724347762  0.1831313955450113
  0.7843240145461792  0.5903825644111294  0.6834072167480443
  0.4098270560234809  0.2149802048510736  0.4342776077195865
  0.4101318480316323  0.2153560575597027  0.9337773615396827
  0.4044618131403013  0.7082043460042726  0.4340699967663895
  0.4102443368680895  0.7148901809308938  0.9338460063704588
  0.9105828460345364  0.2126882681669073  0.4344256431958797
  0.9101264742091928  0.2157539865456926  0.9337522272963525
  0.9176882427903337  0.7132505592495733  0.4349085332715887
  0.9101373119954204  0.7155426981590693  0.9336506789246783
  0.2123937326704777  0.4143565375345233  0.3153459406727634
  0.2144199315352466  0.4100967099118762  0.8158077768245349
  0.2151463670448877  0.9140909662690220  0.3144818927480912
  0.2149144367488418  0.9095059612486622  0.8163898520063242
  0.7138375672380377  0.4100137552372871  0.3168643928008734
  0.7134400924932578  0.4107682665139123  0.8152722364413023
  0.7154695133911773  0.9106183460716508  0.3156858613793148
  0.7156000921228056  0.9104151889766712  0.8161049974700134
  0.4723595453291267  0.4168000336810636  0.3058195488489019
  0.4716800470592233  0.4165882953486886  0.8055975561672142
  0.4735244929804878  0.9153846029270554  0.3063019575004517
  0.4751825033172992  0.9154941758112187  0.8070719957163988
  0.9716963875379889  0.4156569410677307  0.3080461175712799
  0.9729782241191032  0.4165400039166016  0.8061634958215933
  0.9745119599562457  0.9165127133560631  0.3048175730643194
  0.9739634585012098  0.9156503784880385  0.8065829906128883
  0.4068846689594068  0.4747842929910533  0.4437831106243237
  0.4162550809802212  0.4741474401561732  0.9434572398214982
  0.4147786037739678  0.9730990163720747  0.4437410645201325
  0.4162222334123200  0.9744557528169366  0.9433917782443402
  0.9177402551133298  0.4702477096721793  0.4433441193280174
  0.9157733814651223  0.4747977662690133  0.9435341312663184
  0.9160384890602629  0.9720815145957502  0.4436796416394131
  0.9161993514780207  0.9748522389830683  0.9432331883613543
  0.0251913592020259  0.0860336313261598  0.1924011044061373
  0.0263665962931441  0.0829712372516127  0.6941205589055173
  0.0241989335668009  0.5856652889252487  0.1929217279863025
  0.0254071508454814  0.5835815776382631  0.6936023766626533
  0.5260537893374320  0.0840221463707920  0.1937072074692665
  0.5263477249907851  0.0829037280461549  0.6939982393252251
  0.5255769385145683  0.5844217833212255  0.1934457121645963
  0.5241729831712050  0.5830601468851455  0.6928033567804519
  0.0839150737083116  0.0267541732155436  0.0560745627804167
  0.0845223262210695  0.0241525280608101  0.5566483595574212
  0.0840914924120639  0.5266432448766594  0.0561661164192131
  0.0838716090608074  0.5206816749404553  0.5585794064561185
  0.5837853252220100  0.0264517171769540  0.0560425964033513
  0.5833749536573194  0.0255580298380877  0.5560835371875115
  0.5837521166819997  0.5262672717395063  0.0559917539726982
  0.5811588820831659  0.5242926457853940  0.5554812776050682
 
  0.00000000E+00  0.00000000E+00  0.00000000E+00
  0.00000000E+00  0.00000000E+00  0.00000000E+00
  0.00000000E+00  0.00000000E+00  0.00000000E+00
  0.00000000E+00  0.00000000E+00  0.00000000E+00
  0.00000000E+00  0.00000000E+00  0.00000000E+00
  0.00000000E+00  0.00000000E+00  0.00000000E+00
  0.00000000E+00  0.00000000E+00  0.00000000E+00
  0.00000000E+00  0.00000000E+00  0.00000000E+00
  0.00000000E+00  0.00000000E+00  0.00000000E+00
  0.00000000E+00  0.00000000E+00  0.00000000E+00
  0.00000000E+00  0.00000000E+00  0.00000000E+00
  0.00000000E+00  0.00000000E+00  0.00000000E+00
  0.00000000E+00  0.00000000E+00  0.00000000E+00
  0.00000000E+00  0.00000000E+00  0.00000000E+00
  0.00000000E+00  0.00000000E+00  0.00000000E+00
  0.00000000E+00  0.00000000E+00  0.00000000E+00
  0.00000000E+00  0.00000000E+00  0.00000000E+00
  0.00000000E+00  0.00000000E+00  0.00000000E+00
  0.00000000E+00  0.00000000E+00  0.00000000E+00
  0.00000000E+00  0.00000000E+00  0.00000000E+00
  0.00000000E+00  0.00000000E+00  0.00000000E+00
  0.00000000E+00  0.00000000E+00  0.00000000E+00
  0.00000000E+00  0.00000000E+00  0.00000000E+00
  0.00000000E+00  0.00000000E+00  0.00000000E+00
  0.00000000E+00  0.00000000E+00  0.00000000E+00
  0.00000000E+00  0.00000000E+00  0.00000000E+00
  0.00000000E+00  0.00000000E+00  0.00000000E+00
  0.00000000E+00  0.00000000E+00  0.00000000E+00
  0.00000000E+00  0.00000000E+00  0.00000000E+00
  0.00000000E+00  0.00000000E+00  0.00000000E+00
  0.00000000E+00  0.00000000E+00  0.00000000E+00
  0.00000000E+00  0.00000000E+00  0.00000000E+00
  0.00000000E+00  0.00000000E+00  0.00000000E+00
  0.00000000E+00  0.00000000E+00  0.00000000E+00
  0.00000000E+00  0.00000000E+00  0.00000000E+00
  0.00000000E+00  0.00000000E+00  0.00000000E+00
  0.00000000E+00  0.00000000E+00  0.00000000E+00
  0.00000000E+00  0.00000000E+00  0.00000000E+00
  0.00000000E+00  0.00000000E+00  0.00000000E+00
  0.00000000E+00  0.00000000E+00  0.00000000E+00
  0.00000000E+00  0.00000000E+00  0.00000000E+00
  0.00000000E+00  0.00000000E+00  0.00000000E+00
  0.00000000E+00  0.00000000E+00  0.00000000E+00
  0.00000000E+00  0.00000000E+00  0.00000000E+00
  0.00000000E+00  0.00000000E+00  0.00000000E+00
  0.00000000E+00  0.00000000E+00  0.00000000E+00
  0.00000000E+00  0.00000000E+00  0.00000000E+00
  0.00000000E+00  0.00000000E+00  0.00000000E+00
  0.00000000E+00  0.00000000E+00  0.00000000E+00
  0.00000000E+00  0.00000000E+00  0.00000000E+00
  0.00000000E+00  0.00000000E+00  0.00000000E+00
  0.00000000E+00  0.00000000E+00  0.00000000E+00
  0.00000000E+00  0.00000000E+00  0.00000000E+00
  0.00000000E+00  0.00000000E+00  0.00000000E+00
  0.00000000E+00  0.00000000E+00  0.00000000E+00
  0.00000000E+00  0.00000000E+00  0.00000000E+00
  0.00000000E+00  0.00000000E+00  0.00000000E+00
  0.00000000E+00  0.00000000E+00  0.00000000E+00
  0.00000000E+00  0.00000000E+00  0.00000000E+00
  0.00000000E+00  0.00000000E+00  0.00000000E+00
  0.00000000E+00  0.00000000E+00  0.00000000E+00
  0.00000000E+00  0.00000000E+00  0.00000000E+00
  0.00000000E+00  0.00000000E+00  0.00000000E+00
  0.00000000E+00  0.00000000E+00  0.00000000E+00
  0.00000000E+00  0.00000000E+00  0.00000000E+00
  0.00000000E+00  0.00000000E+00  0.00000000E+00
  0.00000000E+00  0.00000000E+00  0.00000000E+00
  0.00000000E+00  0.00000000E+00  0.00000000E+00
  0.00000000E+00  0.00000000E+00  0.00000000E+00
  0.00000000E+00  0.00000000E+00  0.00000000E+00
  0.00000000E+00  0.00000000E+00  0.00000000E+00
  0.00000000E+00  0.00000000E+00  0.00000000E+00
  0.00000000E+00  0.00000000E+00  0.00000000E+00
  0.00000000E+00  0.00000000E+00  0.00000000E+00
  0.00000000E+00  0.00000000E+00  0.00000000E+00
  0.00000000E+00  0.00000000E+00  0.00000000E+00
  0.00000000E+00  0.00000000E+00  0.00000000E+00
  0.00000000E+00  0.00000000E+00  0.00000000E+00
  0.00000000E+00  0.00000000E+00  0.00000000E+00
  0.00000000E+00  0.00000000E+00  0.00000000E+00
  0.00000000E+00  0.00000000E+00  0.00000000E+00
  0.00000000E+00  0.00000000E+00  0.00000000E+00
  0.00000000E+00  0.00000000E+00  0.00000000E+00
  0.00000000E+00  0.00000000E+00  0.00000000E+00
  0.00000000E+00  0.00000000E+00  0.00000000E+00
  0.00000000E+00  0.00000000E+00  0.00000000E+00
  0.00000000E+00  0.00000000E+00  0.00000000E+00
  0.00000000E+00  0.00000000E+00  0.00000000E+00
  0.00000000E+00  0.00000000E+00  0.00000000E+00
  0.00000000E+00  0.00000000E+00  0.00000000E+00
  0.00000000E+00  0.00000000E+00  0.00000000E+00
  0.00000000E+00  0.00000000E+00  0.00000000E+00
  0.00000000E+00  0.00000000E+00  0.00000000E+00
  0.00000000E+00  0.00000000E+00  0.00000000E+00
  0.00000000E+00  0.00000000E+00  0.00000000E+00
  0.00000000E+00  0.00000000E+00  0.00000000E+00
  0.00000000E+00  0.00000000E+00  0.00000000E+00
  0.00000000E+00  0.00000000E+00  0.00000000E+00
  0.00000000E+00  0.00000000E+00  0.00000000E+00
  0.00000000E+00  0.00000000E+00  0.00000000E+00
  0.00000000E+00  0.00000000E+00  0.00000000E+00
  0.00000000E+00  0.00000000E+00  0.00000000E+00
  0.00000000E+00  0.00000000E+00  0.00000000E+00
  0.00000000E+00  0.00000000E+00  0.00000000E+00
  0.00000000E+00  0.00000000E+00  0.00000000E+00
  0.00000000E+00  0.00000000E+00  0.00000000E+00
  0.00000000E+00  0.00000000E+00  0.00000000E+00
  0.00000000E+00  0.00000000E+00  0.00000000E+00
  0.00000000E+00  0.00000000E+00  0.00000000E+00
  0.00000000E+00  0.00000000E+00  0.00000000E+00
  0.00000000E+00  0.00000000E+00  0.00000000E+00
  0.00000000E+00  0.00000000E+00  0.00000000E+00
  0.00000000E+00  0.00000000E+00  0.00000000E+00
  0.00000000E+00  0.00000000E+00  0.00000000E+00
  0.00000000E+00  0.00000000E+00  0.00000000E+00
  0.00000000E+00  0.00000000E+00  0.00000000E+00
  0.00000000E+00  0.00000000E+00  0.00000000E+00
  0.00000000E+00  0.00000000E+00  0.00000000E+00
  0.00000000E+00  0.00000000E+00  0.00000000E+00
  0.00000000E+00  0.00000000E+00  0.00000000E+00
  0.00000000E+00  0.00000000E+00  0.00000000E+00
  0.00000000E+00  0.00000000E+00  0.00000000E+00
  0.00000000E+00  0.00000000E+00  0.00000000E+00
  0.00000000E+00  0.00000000E+00  0.00000000E+00
  0.00000000E+00  0.00000000E+00  0.00000000E+00
  0.00000000E+00  0.00000000E+00  0.00000000E+00
  0.00000000E+00  0.00000000E+00  0.00000000E+00
  0.00000000E+00  0.00000000E+00  0.00000000E+00
  0.00000000E+00  0.00000000E+00  0.00000000E+00
  0.00000000E+00  0.00000000E+00  0.00000000E+00
  0.00000000E+00  0.00000000E+00  0.00000000E+00
  0.00000000E+00  0.00000000E+00  0.00000000E+00
  0.00000000E+00  0.00000000E+00  0.00000000E+00
  0.00000000E+00  0.00000000E+00  0.00000000E+00
  0.00000000E+00  0.00000000E+00  0.00000000E+00
  0.00000000E+00  0.00000000E+00  0.00000000E+00
  0.00000000E+00  0.00000000E+00  0.00000000E+00
  0.00000000E+00  0.00000000E+00  0.00000000E+00
  0.00000000E+00  0.00000000E+00  0.00000000E+00
  0.00000000E+00  0.00000000E+00  0.00000000E+00
  0.00000000E+00  0.00000000E+00  0.00000000E+00
  0.00000000E+00  0.00000000E+00  0.00000000E+00
  0.00000000E+00  0.00000000E+00  0.00000000E+00
  0.00000000E+00  0.00000000E+00  0.00000000E+00
  0.00000000E+00  0.00000000E+00  0.00000000E+00
  0.00000000E+00  0.00000000E+00  0.00000000E+00
  0.00000000E+00  0.00000000E+00  0.00000000E+00
  0.00000000E+00  0.00000000E+00  0.00000000E+00
  0.00000000E+00  0.00000000E+00  0.00000000E+00
  0.00000000E+00  0.00000000E+00  0.00000000E+00
  0.00000000E+00  0.00000000E+00  0.00000000E+00
  0.00000000E+00  0.00000000E+00  0.00000000E+00
  0.00000000E+00  0.00000000E+00  0.00000000E+00
  0.00000000E+00  0.00000000E+00  0.00000000E+00
  0.00000000E+00  0.00000000E+00  0.00000000E+00
  0.00000000E+00  0.00000000E+00  0.00000000E+00
  0.00000000E+00  0.00000000E+00  0.00000000E+00
  0.00000000E+00  0.00000000E+00  0.00000000E+00
  0.00000000E+00  0.00000000E+00  0.00000000E+00
  0.00000000E+00  0.00000000E+00  0.00000000E+00
  0.00000000E+00  0.00000000E+00  0.00000000E+00
  0.00000000E+00  0.00000000E+00  0.00000000E+00
  0.00000000E+00  0.00000000E+00  0.00000000E+00
  0.00000000E+00  0.00000000E+00  0.00000000E+00
  0.00000000E+00  0.00000000E+00  0.00000000E+00
  0.00000000E+00  0.00000000E+00  0.00000000E+00
  0.00000000E+00  0.00000000E+00  0.00000000E+00
  0.00000000E+00  0.00000000E+00  0.00000000E+00
  0.00000000E+00  0.00000000E+00  0.00000000E+00
  0.00000000E+00  0.00000000E+00  0.00000000E+00
  0.00000000E+00  0.00000000E+00  0.00000000E+00
  0.00000000E+00  0.00000000E+00  0.00000000E+00
  0.00000000E+00  0.00000000E+00  0.00000000E+00
  0.00000000E+00  0.00000000E+00  0.00000000E+00
  0.00000000E+00  0.00000000E+00  0.00000000E+00
  0.00000000E+00  0.00000000E+00  0.00000000E+00
  0.00000000E+00  0.00000000E+00  0.00000000E+00
  0.00000000E+00  0.00000000E+00  0.00000000E+00
  0.00000000E+00  0.00000000E+00  0.00000000E+00
  0.00000000E+00  0.00000000E+00  0.00000000E+00
  0.00000000E+00  0.00000000E+00  0.00000000E+00
  0.00000000E+00  0.00000000E+00  0.00000000E+00
  0.00000000E+00  0.00000000E+00  0.00000000E+00
  0.00000000E+00  0.00000000E+00  0.00000000E+00
  0.00000000E+00  0.00000000E+00  0.00000000E+00
  0.00000000E+00  0.00000000E+00  0.00000000E+00
  0.00000000E+00  0.00000000E+00  0.00000000E+00
  0.00000000E+00  0.00000000E+00  0.00000000E+00
  0.00000000E+00  0.00000000E+00  0.00000000E+00
  0.00000000E+00  0.00000000E+00  0.00000000E+00
  0.00000000E+00  0.00000000E+00  0.00000000E+00
  0.00000000E+00  0.00000000E+00  0.00000000E+00
  0.00000000E+00  0.00000000E+00  0.00000000E+00
  0.00000000E+00  0.00000000E+00  0.00000000E+00
  0.00000000E+00  0.00000000E+00  0.00000000E+00
  0.00000000E+00  0.00000000E+00  0.00000000E+00
  0.00000000E+00  0.00000000E+00  0.00000000E+00
  0.00000000E+00  0.00000000E+00  0.00000000E+00
  0.00000000E+00  0.00000000E+00  0.00000000E+00
  0.00000000E+00  0.00000000E+00  0.00000000E+00
  0.00000000E+00  0.00000000E+00  0.00000000E+00
  0.00000000E+00  0.00000000E+00  0.00000000E+00
  0.00000000E+00  0.00000000E+00  0.00000000E+00
  0.00000000E+00  0.00000000E+00  0.00000000E+00
  0.00000000E+00  0.00000000E+00  0.00000000E+00
  0.00000000E+00  0.00000000E+00  0.00000000E+00
  0.00000000E+00  0.00000000E+00  0.00000000E+00
  0.00000000E+00  0.00000000E+00  0.00000000E+00
  0.00000000E+00  0.00000000E+00  0.00000000E+00
  0.00000000E+00  0.00000000E+00  0.00000000E+00
  0.00000000E+00  0.00000000E+00  0.00000000E+00
  0.00000000E+00  0.00000000E+00  0.00000000E+00
  0.00000000E+00  0.00000000E+00  0.00000000E+00
  0.00000000E+00  0.00000000E+00  0.00000000E+00
  0.00000000E+00  0.00000000E+00  0.00000000E+00
  0.00000000E+00  0.00000000E+00  0.00000000E+00
  0.00000000E+00  0.00000000E+00  0.00000000E+00
  0.00000000E+00  0.00000000E+00  0.00000000E+00
  0.00000000E+00  0.00000000E+00  0.00000000E+00
  0.00000000E+00  0.00000000E+00  0.00000000E+00
  0.00000000E+00  0.00000000E+00  0.00000000E+00
  0.00000000E+00  0.00000000E+00  0.00000000E+00
  0.00000000E+00  0.00000000E+00  0.00000000E+00
  0.00000000E+00  0.00000000E+00  0.00000000E+00
  0.00000000E+00  0.00000000E+00  0.00000000E+00
  0.00000000E+00  0.00000000E+00  0.00000000E+00
  0.00000000E+00  0.00000000E+00  0.00000000E+00
  0.00000000E+00  0.00000000E+00  0.00000000E+00
  0.00000000E+00  0.00000000E+00  0.00000000E+00
  0.00000000E+00  0.00000000E+00  0.00000000E+00
  0.00000000E+00  0.00000000E+00  0.00000000E+00
  0.00000000E+00  0.00000000E+00  0.00000000E+00
  0.00000000E+00  0.00000000E+00  0.00000000E+00
  0.00000000E+00  0.00000000E+00  0.00000000E+00
  0.00000000E+00  0.00000000E+00  0.00000000E+00
  0.00000000E+00  0.00000000E+00  0.00000000E+00
  0.00000000E+00  0.00000000E+00  0.00000000E+00
  0.00000000E+00  0.00000000E+00  0.00000000E+00
  0.00000000E+00  0.00000000E+00  0.00000000E+00
  0.00000000E+00  0.00000000E+00  0.00000000E+00
  0.00000000E+00  0.00000000E+00  0.00000000E+00
  0.00000000E+00  0.00000000E+00  0.00000000E+00
  0.00000000E+00  0.00000000E+00  0.00000000E+00
  0.00000000E+00  0.00000000E+00  0.00000000E+00
  0.00000000E+00  0.00000000E+00  0.00000000E+00
  0.00000000E+00  0.00000000E+00  0.00000000E+00
  0.00000000E+00  0.00000000E+00  0.00000000E+00
  0.00000000E+00  0.00000000E+00  0.00000000E+00
  0.00000000E+00  0.00000000E+00  0.00000000E+00
  0.00000000E+00  0.00000000E+00  0.00000000E+00
  0.00000000E+00  0.00000000E+00  0.00000000E+00
  0.00000000E+00  0.00000000E+00  0.00000000E+00
  0.00000000E+00  0.00000000E+00  0.00000000E+00
  0.00000000E+00  0.00000000E+00  0.00000000E+00
  0.00000000E+00  0.00000000E+00  0.00000000E+00
  0.00000000E+00  0.00000000E+00  0.00000000E+00
