Li95 Ta32 O128                          
   1.00000000000000     
    11.3805060000000005    0.0067560000000000   -3.8448400000000000
     1.3117719999999999   11.3046539999999993    3.8448410000000002
    -0.0280210000000000    0.0314430000000000   18.5912410000000001
   Li   Ta   O 
    95    32   128
Direct
  0.2839127103149224  0.0960435121618772  0.4428436329729735
  0.2840498353763792  0.0972571803566211  0.9430839309647681
  0.2838960748459627  0.5978145310402141  0.9427413491025121
  0.7840286973274431  0.0970544625262235  0.4430209692573399
  0.7841027266069815  0.0974582331717642  0.9427888862962490
  0.7876815474108838  0.6011742460126683  0.4432159697340765
  0.7843667956882072  0.5976610533753473  0.9433084770952505
  0.0969666734134478  0.2840331888485252  0.3071893719888408
  0.0971517406364129  0.2840163626151124  0.8071491914108293
  0.0981807089336613  0.7828204158370582  0.3076735525327905
  0.0975104244886182  0.7841423137327084  0.8071258870316456
  0.5976946813145929  0.2839435584039975  0.3067708024724496
  0.5989946895342797  0.2832365264489241  0.8084828529960788
  0.5986192077378902  0.7853809920594301  0.3059732174042509
  0.5973707349731612  0.7841652259677829  0.8069415815753658
  0.2153163298199274  0.4019488237883451  0.0565278125626136
  0.2163367020001061  0.4076225945627385  0.5536173561155593
  0.2160373797830175  0.9026960655914564  0.0570424490841717
  0.2155996811830434  0.9012671664837910  0.5564528647820808
  0.7164718103242649  0.4025525180127829  0.0573593263336321
  0.7149637433893190  0.4021551206815204  0.5579417771423536
  0.7160902110983471  0.9024934349100278  0.0569921407396450
  0.7161779491593379  0.9028336072331200  0.5574872718020671
  0.4022526848898380  0.2152623301547933  0.1928435686347498
  0.4021193569275283  0.2144200175455282  0.6953792829244918
  0.4013549493667057  0.7171629950628287  0.1917798839738012
  0.4028619917403660  0.7161156925908543  0.6932137434572851
  0.9028683351841451  0.2159801203747094  0.1931874092402310
  0.9021171850103329  0.2162643875466514  0.6928439252356071
  0.9036042320029978  0.7157541163132208  0.1933451315097798
  0.9023469853663428  0.7161301191372615  0.6931734352652938
  0.1770972994820355  0.2184146321455103  0.1876857218670338
  0.1776728409808612  0.2202890007552298  0.6872703733229244
  0.1778934668196541  0.7194773246188930  0.1861049290840100
  0.1781946297689174  0.7195116314492509  0.6876348362145421
  0.6784244657214629  0.2198221740069286  0.1871171649255956
  0.6780274131068538  0.2192207304438156  0.6885379715022992
  0.6790377551751305  0.7203544114127070  0.1870343338967970
  0.6776920639152095  0.7200204644492914  0.6874276837526523
  0.2194772535763718  0.1776993033619547  0.0626996815306384
  0.2179136395036707  0.1797151375640595  0.5623130090003201
  0.2196500807168178  0.6780311031944066  0.0622273949922558
  0.2197266657169621  0.6765758181406341  0.5619163594516650
  0.7198117274231848  0.1781485035166099  0.0624097226670628
  0.7194663608988563  0.1778772023011044  0.5625792260957567
  0.7198607613584613  0.6781626515196066  0.0626319964662727
  0.7210875763047611  0.6794349594257767  0.5630111422980093
  0.3216878529143870  0.2797806906983737  0.3126536327084466
  0.3212102174112417  0.2796365826135201  0.8132144743486904
  0.3189743571898447  0.7777574868306019  0.3127388904642459
  0.3221211131037549  0.7808954250526909  0.8125040902734142
  0.8227723528981556  0.2804417297458457  0.3123630959870667
  0.8224847932732260  0.2805448844997471  0.8127431770409785
  0.8236181991948044  0.7806559340751633  0.3130184637581834
  0.8218562277321695  0.7806413120131310  0.8126500952391140
  0.2794255154246841  0.3181052976118153  0.4371771632794434
  0.2802325305885134  0.3215555746147274  0.9375044993377202
  0.2798399467129400  0.8074818728433257  0.4377309999370453
  0.2804626542310018  0.8222625904331622  0.9373910791286946
  0.7817054269750372  0.3201364342237127  0.4375939575740375
  0.7811070853382276  0.3217175359031401  0.9376842892790762
  0.7824288418980174  0.8234576608880602  0.4372522911186181
  0.7804650574464844  0.8220353587256000  0.9374866765088541
  0.0268597102106085  0.3478783330679320  0.4309808393886172
  0.0288017189264593  0.3476155978836246  0.9321096298534144
  0.0265835289313543  0.8478163186162107  0.4318020293481837
  0.0288211279735577  0.8477601504343681  0.9319524618195274
  0.5297632760584605  0.3425747288631129  0.4306199122192069
  0.5294362444408094  0.3474039859015008  0.9322902855600859
  0.5300015177900121  0.8510605550162396  0.4315135457921926
  0.5289673446168237  0.8477271508223865  0.9319783153328629
  0.3477316740478074  0.0274790995409973  0.3184611699867617
  0.3476365113063196  0.0281775354781573  0.8182943381067957
  0.3471718934985049  0.5316012862536610  0.3153064039374840
  0.3477929925708807  0.5289076662681254  0.8191597164791986
  0.8478034768479858  0.0295091781594365  0.3177005102722603
  0.8476416729489173  0.0289456743996226  0.8183030027037361
  0.8481437346243723  0.5288882553293845  0.3189160564513855
  0.8480311326431718  0.5288699341905740  0.8183103367496543
  0.4711013006660778  0.1520837795926937  0.0680092114011117
  0.4708431310096941  0.1534432050653933  0.5670935628031799
  0.4707261376528820  0.6526968019770436  0.0673611083932499
  0.4668159450173874  0.6512550574502640  0.5667076573891165
  0.9714464360966701  0.1523575929618630  0.0681349170980852
  0.9710278609211827  0.1521988037130484  0.5683276493990732
  0.9712237330742681  0.6521543518662298  0.0682172066308553
  0.9712768387355339  0.6526627202334794  0.5677332277606126
  0.1515394628340943  0.4715953867682074  0.1820920260995180
  0.1515740146331268  0.4703483723954349  0.6821106436976336
  0.1524224062028736  0.9706557526890407  0.1822033185484955
  0.1523083740080793  0.9713899630504841  0.6819842381651640
  0.6524855544340724  0.4713658846809921  0.1808028623651694
  0.6536655655168957  0.4727477443342991  0.6832584344288151
  0.6525311738745714  0.9716235264285586  0.1816338883958224
  0.6515766856130796  0.9713829593396923  0.6814369710181865
  0.3884543817427399  0.4678462439695892  0.1868526114133289
  0.3892111057664707  0.4686280141691768  0.6895229945732169
  0.3896262367485832  0.9687257171374313  0.1877511058192525
  0.3892579441229458  0.9692290791140650  0.6870751452413799
  0.8900120014968493  0.4691799075297638  0.1881760013171103
  0.8894538544766348  0.4690251023521768  0.6876664002478137
  0.8895693611428115  0.9691585685668045  0.1875885494299538
  0.8890671785135851  0.9692034518923620  0.6877783558428874
  0.4688480849954288  0.3893152787532443  0.0620064169734320
  0.4693644833230124  0.3905943316665770  0.5659612104817668
  0.4691011873588948  0.8894431795263174  0.0623731865837343
  0.4683883022729134  0.8887149958304761  0.5619447796761889
  0.9689326446003363  0.3894914257340218  0.0625362459590164
  0.9682058982941797  0.3898389371182347  0.5619139206350425
  0.9688461306474139  0.8895403343591823  0.0623292798929711
  0.9690912460721250  0.8895390842088133  0.5629050502625432
  0.1108889621817184  0.0297505930123521  0.3131571097934298
  0.1103719136143653  0.0312610461531477  0.8123540234234810
  0.1127826520676720  0.5322039798215599  0.3138201827006171
  0.1104543692376296  0.5310985518482738  0.8124419367269837
  0.6108964388565141  0.0317958590169525  0.3117840219900785
  0.6104407627631971  0.0307668678009136  0.8123642986072497
  0.6084990842929088  0.5322512596355580  0.3103166666321897
  0.6112743678408705  0.5310394246237777  0.8130009079499274
  0.0308634432755355  0.1103260511685562  0.4377116870694095
  0.0311819873513670  0.1105641094265195  0.9377037202256062
  0.0341859120202699  0.6115560057034841  0.4378044093965343
  0.0310747565748954  0.6105875757610875  0.9377319561977373
  0.5313663044553394  0.1094796394147863  0.4376520701039652
  0.5311049889989690  0.1103707432457668  0.9376958140344271
  0.5307131029655210  0.6164516327832033  0.4369029597310430
  0.5313594372167998  0.6107438845151236  0.9377689392850357
  0.3554286241181757  0.0209118885502733  0.0687469052001433
  0.3551996033153415  0.0207918047013749  0.5682131233953172
  0.3547466526649217  0.5209391165035129  0.0682236702540493
  0.3584357747449616  0.5179656955701830  0.5719986816438407
  0.8551481183197325  0.0211534333937351  0.0685334661308588
  0.8547523435048419  0.0212478055281622  0.5688802396011781
  0.8555274445428083  0.5210142413144609  0.0688153638613542
  0.8544051419875558  0.5213717883207494  0.5686003964173096
  0.0212427962296360  0.3547256677048907  0.1815397840251407
  0.0204516796800078  0.3554805510756580  0.6812471499407238
  0.0208618344789286  0.8554963272562901  0.1811939061090087
  0.0207440756369692  0.8553471123496408  0.6817619388226817
  0.5208770763579906  0.3555283338182775  0.1810401118602911
  0.5230671325067036  0.3514418344131940  0.6831722317203628
  0.5214581152364346  0.8550555105483113  0.1813584629161440
  0.5205783988480022  0.8549428916142574  0.6809598581933116
  0.1380406343163969  0.4761590012942278  0.4307806920192050
  0.1447806491146721  0.4789306412885139  0.9313956747297141
  0.1439158735101458  0.9797834179572149  0.4316366413560715
  0.1448909632889581  0.9790550614716977  0.9313660407888733
  0.6382805230465181  0.4760543113884168  0.4313362240952898
  0.6454153360803403  0.4791388392947908  0.9317995341780900
  0.6456007257769656  0.9792338023291833  0.4311301710095918
  0.6447673979914796  0.9786842321814575  0.9313225686962667
  0.4794071625829019  0.1450214741811990  0.3184449469919244
  0.4788521127608689  0.1444295144725558  0.8188274336865646
  0.4797427825711651  0.6463656379178673  0.3184314638054175
  0.4792920449975853  0.6448365344363580  0.8188444028302015
  0.9786736635622333  0.1450321762820721  0.3187376341120256
  0.9788886956296849  0.1451756627608631  0.8186909970296838
  0.9800228439463083  0.6461165934858073  0.3183957201235472
  0.9789628207485634  0.6448773895944413  0.8187486173193150
  0.2120952192576979  0.1502463560751579  0.3095581259002955
  0.2118608872096743  0.1512437819625703  0.8091385559348012
  0.2107739750005635  0.6529204390846033  0.3042719283034785
  0.2119972938215966  0.6511528763766989  0.8092651429850690
  0.7122829432549906  0.1519541894707572  0.3087642865942399
  0.7122226177821886  0.1507153870006661  0.8095086061253909
  0.7118821827086421  0.6505468247383988  0.3099810324960686
  0.7122710622226052  0.6513944180041804  0.8092516873204048
  0.1510030538122962  0.2116132587692334  0.4411011187015674
  0.1512769856925900  0.2119809097626870  0.9409860552904377
  0.1446097111486324  0.7191982291010248  0.4406424030340474
  0.1511943561902385  0.7121131006027213  0.9408479504688785
  0.6512331478825004  0.2118512471967549  0.4409976575145791
  0.6513075533744797  0.2118019915033855  0.9408433757375292
  0.6548469797531666  0.7116435913933117  0.4410301512774524
  0.6513439177916283  0.7121981831230784  0.9410244395319367
  0.2872610962253503  0.3482680915206657  0.1908120764760213
  0.2887914240173615  0.3477629196365370  0.6922850093847615
  0.2882094153610808  0.8488436224010059  0.1906452879372580
  0.2879610524968186  0.8490049380600482  0.6908045347009519
  0.7878483193099441  0.3490928391434167  0.1907552306834859
  0.7872838656089556  0.3493225805536895  0.6907382729232339
  0.7882418187450142  0.8487905456129070  0.1910080866373747
  0.7877839602521135  0.8489934306951952  0.6910334210539375
  0.3487700342466695  0.2878645180229000  0.0590526096037678
  0.3475501244157044  0.2917713381126532  0.5564509190545195
  0.3489764437454355  0.7878955610153611  0.0592104387789192
  0.3488174873942782  0.7867450918847538  0.5588815498223312
  0.8489222687638360  0.2879786829299462  0.0591620569846825
  0.8478893938613083  0.2882709980358982  0.5591562627906725
  0.8489253699865742  0.7879032370746657  0.0592096804046420
  0.8488321414400772  0.7882182906942958  0.5593977735138580
  0.0896634709402520  0.2849954562518278  0.0659885570346432
  0.0888816965451653  0.2852044041976924  0.5659182691236992
  0.0896421361410020  0.7850661172011115  0.0658405127144732
  0.0896748142420449  0.7849275800219644  0.5668045460647946
  0.5897924842344224  0.2851329097444975  0.0657107656804570
  0.5887041526605117  0.2863330196021394  0.5662413670186268
  0.5899219286810435  0.7850500256883421  0.0659890545434862
  0.5902409678749976  0.7854565227544654  0.5658998645249653
  0.2852025292895704  0.0893700772251904  0.1842264785086414
  0.2850623443826308  0.0903989128680820  0.6834424704395943
  0.2855173428940461  0.5896914565155029  0.1835104911170262
  0.2848013032641106  0.5893168479375959  0.6849367645856574
  0.7850089511129354  0.0900795773255822  0.1836924266095181
  0.7845930141777870  0.0901916074926064  0.6840420504569522
  0.7849246508696268  0.5898491150022167  0.1842620818555076
  0.7848777611653617  0.5898882586372949  0.6840544156932467
  0.4106478784589314  0.2143435309872999  0.4339176667944429
  0.4102859414576727  0.2145778255930963  0.9342215864265455
  0.4152263511924943  0.7225294760106920  0.4327902053455830
  0.4103732422000661  0.7150320543072510  0.9341076422756629
  0.9096854170699871  0.2148350024760859  0.4339940637271837
  0.9104042624728450  0.2149123016440555  0.9341715386240281
  0.9093036274281729  0.7134870261088935  0.4339977589614818
  0.9103217781953035  0.7149802402090302  0.9341425725893160
  0.2163518399526367  0.4101369982008976  0.3172818624390459
  0.2147368776053256  0.4101082553101634  0.8161804036135365
  0.2145600698698473  0.9090320668408225  0.3162710334465686
  0.2147850507596161  0.9105339141421425  0.8158420036543745
  0.7146233423748640  0.4107159649372605  0.3167261843364670
  0.7155220137586653  0.4103053157692074  0.8162897763216108
  0.7154999553457486  0.9109064046365916  0.3156215780673577
  0.7147573619578083  0.9100950574612057  0.8159333901519545
  0.4739542825902703  0.4163006710781119  0.3053617523267249
  0.4753099009394077  0.4152752876760886  0.8077542184388236
  0.4753444939117273  0.9168178517856163  0.3061581185222053
  0.4738854428398724  0.9161885601903563  0.8060029373945952
  0.9736525788555070  0.4154644444634599  0.3062901248021035
  0.9739017828055623  0.4160797249841366  0.8064365447400803
  0.9732651784413804  0.9168102159136069  0.3063415167891037
  0.9738789043189016  0.9164615724226479  0.8065194153025956
  0.4267013101441819  0.4697703523001167  0.4412964713991414
  0.4161811814918437  0.4742487135832363  0.9435212029384559
  0.4171827007166655  0.9745843747835181  0.4434614044930996
  0.4160662250907947  0.9739758143014896  0.9436461808290701
  0.9130796517818496  0.4741685751288571  0.4437446397511167
  0.9162415917671396  0.4741923040521741  0.9437378678874282
  0.9156279195312607  0.9738277229103360  0.4438582819699093
  0.9160639001575888  0.9742226981430306  0.9436289316809123
  0.0262278518482191  0.0835828329142387  0.1940182064180149
  0.0254953260619928  0.0841861276749256  0.6936492904473823
  0.0259305541852513  0.5824757251993233  0.1942498096708718
  0.0256702034729628  0.5838352913930507  0.6936991307454150
  0.5261064786264242  0.0844064712917643  0.1932285869211938
  0.5256325494424061  0.0843092690876048  0.6934499845500355
  0.5260633507999515  0.5844340915622155  0.1931084601027351
  0.5260622331130236  0.5826820552692880  0.6943848125742633
  0.0840606623944993  0.0257811442097378  0.0564273947255884
  0.0832665174959928  0.0260527681410494  0.5565784012073394
  0.0841108894316278  0.5258490735400372  0.0564786279835374
  0.0844034631994930  0.5257508998862122  0.5563295946042004
  0.5840937565862347  0.0256634970880825  0.0563874850756036
  0.5841174480376381  0.0257902545984763  0.5563948664844531
  0.5837449269162676  0.5258950990974753  0.0564264679732673
  0.5811653878914953  0.5274758694124486  0.5553171971711919
 
  0.00000000E+00  0.00000000E+00  0.00000000E+00
  0.00000000E+00  0.00000000E+00  0.00000000E+00
  0.00000000E+00  0.00000000E+00  0.00000000E+00
  0.00000000E+00  0.00000000E+00  0.00000000E+00
  0.00000000E+00  0.00000000E+00  0.00000000E+00
  0.00000000E+00  0.00000000E+00  0.00000000E+00
  0.00000000E+00  0.00000000E+00  0.00000000E+00
  0.00000000E+00  0.00000000E+00  0.00000000E+00
  0.00000000E+00  0.00000000E+00  0.00000000E+00
  0.00000000E+00  0.00000000E+00  0.00000000E+00
  0.00000000E+00  0.00000000E+00  0.00000000E+00
  0.00000000E+00  0.00000000E+00  0.00000000E+00
  0.00000000E+00  0.00000000E+00  0.00000000E+00
  0.00000000E+00  0.00000000E+00  0.00000000E+00
  0.00000000E+00  0.00000000E+00  0.00000000E+00
  0.00000000E+00  0.00000000E+00  0.00000000E+00
  0.00000000E+00  0.00000000E+00  0.00000000E+00
  0.00000000E+00  0.00000000E+00  0.00000000E+00
  0.00000000E+00  0.00000000E+00  0.00000000E+00
  0.00000000E+00  0.00000000E+00  0.00000000E+00
  0.00000000E+00  0.00000000E+00  0.00000000E+00
  0.00000000E+00  0.00000000E+00  0.00000000E+00
  0.00000000E+00  0.00000000E+00  0.00000000E+00
  0.00000000E+00  0.00000000E+00  0.00000000E+00
  0.00000000E+00  0.00000000E+00  0.00000000E+00
  0.00000000E+00  0.00000000E+00  0.00000000E+00
  0.00000000E+00  0.00000000E+00  0.00000000E+00
  0.00000000E+00  0.00000000E+00  0.00000000E+00
  0.00000000E+00  0.00000000E+00  0.00000000E+00
  0.00000000E+00  0.00000000E+00  0.00000000E+00
  0.00000000E+00  0.00000000E+00  0.00000000E+00
  0.00000000E+00  0.00000000E+00  0.00000000E+00
  0.00000000E+00  0.00000000E+00  0.00000000E+00
  0.00000000E+00  0.00000000E+00  0.00000000E+00
  0.00000000E+00  0.00000000E+00  0.00000000E+00
  0.00000000E+00  0.00000000E+00  0.00000000E+00
  0.00000000E+00  0.00000000E+00  0.00000000E+00
  0.00000000E+00  0.00000000E+00  0.00000000E+00
  0.00000000E+00  0.00000000E+00  0.00000000E+00
  0.00000000E+00  0.00000000E+00  0.00000000E+00
  0.00000000E+00  0.00000000E+00  0.00000000E+00
  0.00000000E+00  0.00000000E+00  0.00000000E+00
  0.00000000E+00  0.00000000E+00  0.00000000E+00
  0.00000000E+00  0.00000000E+00  0.00000000E+00
  0.00000000E+00  0.00000000E+00  0.00000000E+00
  0.00000000E+00  0.00000000E+00  0.00000000E+00
  0.00000000E+00  0.00000000E+00  0.00000000E+00
  0.00000000E+00  0.00000000E+00  0.00000000E+00
  0.00000000E+00  0.00000000E+00  0.00000000E+00
  0.00000000E+00  0.00000000E+00  0.00000000E+00
  0.00000000E+00  0.00000000E+00  0.00000000E+00
  0.00000000E+00  0.00000000E+00  0.00000000E+00
  0.00000000E+00  0.00000000E+00  0.00000000E+00
  0.00000000E+00  0.00000000E+00  0.00000000E+00
  0.00000000E+00  0.00000000E+00  0.00000000E+00
  0.00000000E+00  0.00000000E+00  0.00000000E+00
  0.00000000E+00  0.00000000E+00  0.00000000E+00
  0.00000000E+00  0.00000000E+00  0.00000000E+00
  0.00000000E+00  0.00000000E+00  0.00000000E+00
  0.00000000E+00  0.00000000E+00  0.00000000E+00
  0.00000000E+00  0.00000000E+00  0.00000000E+00
  0.00000000E+00  0.00000000E+00  0.00000000E+00
  0.00000000E+00  0.00000000E+00  0.00000000E+00
  0.00000000E+00  0.00000000E+00  0.00000000E+00
  0.00000000E+00  0.00000000E+00  0.00000000E+00
  0.00000000E+00  0.00000000E+00  0.00000000E+00
  0.00000000E+00  0.00000000E+00  0.00000000E+00
  0.00000000E+00  0.00000000E+00  0.00000000E+00
  0.00000000E+00  0.00000000E+00  0.00000000E+00
  0.00000000E+00  0.00000000E+00  0.00000000E+00
  0.00000000E+00  0.00000000E+00  0.00000000E+00
  0.00000000E+00  0.00000000E+00  0.00000000E+00
  0.00000000E+00  0.00000000E+00  0.00000000E+00
  0.00000000E+00  0.00000000E+00  0.00000000E+00
  0.00000000E+00  0.00000000E+00  0.00000000E+00
  0.00000000E+00  0.00000000E+00  0.00000000E+00
  0.00000000E+00  0.00000000E+00  0.00000000E+00
  0.00000000E+00  0.00000000E+00  0.00000000E+00
  0.00000000E+00  0.00000000E+00  0.00000000E+00
  0.00000000E+00  0.00000000E+00  0.00000000E+00
  0.00000000E+00  0.00000000E+00  0.00000000E+00
  0.00000000E+00  0.00000000E+00  0.00000000E+00
  0.00000000E+00  0.00000000E+00  0.00000000E+00
  0.00000000E+00  0.00000000E+00  0.00000000E+00
  0.00000000E+00  0.00000000E+00  0.00000000E+00
  0.00000000E+00  0.00000000E+00  0.00000000E+00
  0.00000000E+00  0.00000000E+00  0.00000000E+00
  0.00000000E+00  0.00000000E+00  0.00000000E+00
  0.00000000E+00  0.00000000E+00  0.00000000E+00
  0.00000000E+00  0.00000000E+00  0.00000000E+00
  0.00000000E+00  0.00000000E+00  0.00000000E+00
  0.00000000E+00  0.00000000E+00  0.00000000E+00
  0.00000000E+00  0.00000000E+00  0.00000000E+00
  0.00000000E+00  0.00000000E+00  0.00000000E+00
  0.00000000E+00  0.00000000E+00  0.00000000E+00
  0.00000000E+00  0.00000000E+00  0.00000000E+00
  0.00000000E+00  0.00000000E+00  0.00000000E+00
  0.00000000E+00  0.00000000E+00  0.00000000E+00
  0.00000000E+00  0.00000000E+00  0.00000000E+00
  0.00000000E+00  0.00000000E+00  0.00000000E+00
  0.00000000E+00  0.00000000E+00  0.00000000E+00
  0.00000000E+00  0.00000000E+00  0.00000000E+00
  0.00000000E+00  0.00000000E+00  0.00000000E+00
  0.00000000E+00  0.00000000E+00  0.00000000E+00
  0.00000000E+00  0.00000000E+00  0.00000000E+00
  0.00000000E+00  0.00000000E+00  0.00000000E+00
  0.00000000E+00  0.00000000E+00  0.00000000E+00
  0.00000000E+00  0.00000000E+00  0.00000000E+00
  0.00000000E+00  0.00000000E+00  0.00000000E+00
  0.00000000E+00  0.00000000E+00  0.00000000E+00
  0.00000000E+00  0.00000000E+00  0.00000000E+00
  0.00000000E+00  0.00000000E+00  0.00000000E+00
  0.00000000E+00  0.00000000E+00  0.00000000E+00
  0.00000000E+00  0.00000000E+00  0.00000000E+00
  0.00000000E+00  0.00000000E+00  0.00000000E+00
  0.00000000E+00  0.00000000E+00  0.00000000E+00
  0.00000000E+00  0.00000000E+00  0.00000000E+00
  0.00000000E+00  0.00000000E+00  0.00000000E+00
  0.00000000E+00  0.00000000E+00  0.00000000E+00
  0.00000000E+00  0.00000000E+00  0.00000000E+00
  0.00000000E+00  0.00000000E+00  0.00000000E+00
  0.00000000E+00  0.00000000E+00  0.00000000E+00
  0.00000000E+00  0.00000000E+00  0.00000000E+00
  0.00000000E+00  0.00000000E+00  0.00000000E+00
  0.00000000E+00  0.00000000E+00  0.00000000E+00
  0.00000000E+00  0.00000000E+00  0.00000000E+00
  0.00000000E+00  0.00000000E+00  0.00000000E+00
  0.00000000E+00  0.00000000E+00  0.00000000E+00
  0.00000000E+00  0.00000000E+00  0.00000000E+00
  0.00000000E+00  0.00000000E+00  0.00000000E+00
  0.00000000E+00  0.00000000E+00  0.00000000E+00
  0.00000000E+00  0.00000000E+00  0.00000000E+00
  0.00000000E+00  0.00000000E+00  0.00000000E+00
  0.00000000E+00  0.00000000E+00  0.00000000E+00
  0.00000000E+00  0.00000000E+00  0.00000000E+00
  0.00000000E+00  0.00000000E+00  0.00000000E+00
  0.00000000E+00  0.00000000E+00  0.00000000E+00
  0.00000000E+00  0.00000000E+00  0.00000000E+00
  0.00000000E+00  0.00000000E+00  0.00000000E+00
  0.00000000E+00  0.00000000E+00  0.00000000E+00
  0.00000000E+00  0.00000000E+00  0.00000000E+00
  0.00000000E+00  0.00000000E+00  0.00000000E+00
  0.00000000E+00  0.00000000E+00  0.00000000E+00
  0.00000000E+00  0.00000000E+00  0.00000000E+00
  0.00000000E+00  0.00000000E+00  0.00000000E+00
  0.00000000E+00  0.00000000E+00  0.00000000E+00
  0.00000000E+00  0.00000000E+00  0.00000000E+00
  0.00000000E+00  0.00000000E+00  0.00000000E+00
  0.00000000E+00  0.00000000E+00  0.00000000E+00
  0.00000000E+00  0.00000000E+00  0.00000000E+00
  0.00000000E+00  0.00000000E+00  0.00000000E+00
  0.00000000E+00  0.00000000E+00  0.00000000E+00
  0.00000000E+00  0.00000000E+00  0.00000000E+00
  0.00000000E+00  0.00000000E+00  0.00000000E+00
  0.00000000E+00  0.00000000E+00  0.00000000E+00
  0.00000000E+00  0.00000000E+00  0.00000000E+00
  0.00000000E+00  0.00000000E+00  0.00000000E+00
  0.00000000E+00  0.00000000E+00  0.00000000E+00
  0.00000000E+00  0.00000000E+00  0.00000000E+00
  0.00000000E+00  0.00000000E+00  0.00000000E+00
  0.00000000E+00  0.00000000E+00  0.00000000E+00
  0.00000000E+00  0.00000000E+00  0.00000000E+00
  0.00000000E+00  0.00000000E+00  0.00000000E+00
  0.00000000E+00  0.00000000E+00  0.00000000E+00
  0.00000000E+00  0.00000000E+00  0.00000000E+00
  0.00000000E+00  0.00000000E+00  0.00000000E+00
  0.00000000E+00  0.00000000E+00  0.00000000E+00
  0.00000000E+00  0.00000000E+00  0.00000000E+00
  0.00000000E+00  0.00000000E+00  0.00000000E+00
  0.00000000E+00  0.00000000E+00  0.00000000E+00
  0.00000000E+00  0.00000000E+00  0.00000000E+00
  0.00000000E+00  0.00000000E+00  0.00000000E+00
  0.00000000E+00  0.00000000E+00  0.00000000E+00
  0.00000000E+00  0.00000000E+00  0.00000000E+00
  0.00000000E+00  0.00000000E+00  0.00000000E+00
  0.00000000E+00  0.00000000E+00  0.00000000E+00
  0.00000000E+00  0.00000000E+00  0.00000000E+00
  0.00000000E+00  0.00000000E+00  0.00000000E+00
  0.00000000E+00  0.00000000E+00  0.00000000E+00
  0.00000000E+00  0.00000000E+00  0.00000000E+00
  0.00000000E+00  0.00000000E+00  0.00000000E+00
  0.00000000E+00  0.00000000E+00  0.00000000E+00
  0.00000000E+00  0.00000000E+00  0.00000000E+00
  0.00000000E+00  0.00000000E+00  0.00000000E+00
  0.00000000E+00  0.00000000E+00  0.00000000E+00
  0.00000000E+00  0.00000000E+00  0.00000000E+00
  0.00000000E+00  0.00000000E+00  0.00000000E+00
  0.00000000E+00  0.00000000E+00  0.00000000E+00
  0.00000000E+00  0.00000000E+00  0.00000000E+00
  0.00000000E+00  0.00000000E+00  0.00000000E+00
  0.00000000E+00  0.00000000E+00  0.00000000E+00
  0.00000000E+00  0.00000000E+00  0.00000000E+00
  0.00000000E+00  0.00000000E+00  0.00000000E+00
  0.00000000E+00  0.00000000E+00  0.00000000E+00
  0.00000000E+00  0.00000000E+00  0.00000000E+00
  0.00000000E+00  0.00000000E+00  0.00000000E+00
  0.00000000E+00  0.00000000E+00  0.00000000E+00
  0.00000000E+00  0.00000000E+00  0.00000000E+00
  0.00000000E+00  0.00000000E+00  0.00000000E+00
  0.00000000E+00  0.00000000E+00  0.00000000E+00
  0.00000000E+00  0.00000000E+00  0.00000000E+00
  0.00000000E+00  0.00000000E+00  0.00000000E+00
  0.00000000E+00  0.00000000E+00  0.00000000E+00
  0.00000000E+00  0.00000000E+00  0.00000000E+00
  0.00000000E+00  0.00000000E+00  0.00000000E+00
  0.00000000E+00  0.00000000E+00  0.00000000E+00
  0.00000000E+00  0.00000000E+00  0.00000000E+00
  0.00000000E+00  0.00000000E+00  0.00000000E+00
  0.00000000E+00  0.00000000E+00  0.00000000E+00
  0.00000000E+00  0.00000000E+00  0.00000000E+00
  0.00000000E+00  0.00000000E+00  0.00000000E+00
  0.00000000E+00  0.00000000E+00  0.00000000E+00
  0.00000000E+00  0.00000000E+00  0.00000000E+00
  0.00000000E+00  0.00000000E+00  0.00000000E+00
  0.00000000E+00  0.00000000E+00  0.00000000E+00
  0.00000000E+00  0.00000000E+00  0.00000000E+00
  0.00000000E+00  0.00000000E+00  0.00000000E+00
  0.00000000E+00  0.00000000E+00  0.00000000E+00
  0.00000000E+00  0.00000000E+00  0.00000000E+00
  0.00000000E+00  0.00000000E+00  0.00000000E+00
  0.00000000E+00  0.00000000E+00  0.00000000E+00
  0.00000000E+00  0.00000000E+00  0.00000000E+00
  0.00000000E+00  0.00000000E+00  0.00000000E+00
  0.00000000E+00  0.00000000E+00  0.00000000E+00
  0.00000000E+00  0.00000000E+00  0.00000000E+00
  0.00000000E+00  0.00000000E+00  0.00000000E+00
  0.00000000E+00  0.00000000E+00  0.00000000E+00
  0.00000000E+00  0.00000000E+00  0.00000000E+00
  0.00000000E+00  0.00000000E+00  0.00000000E+00
  0.00000000E+00  0.00000000E+00  0.00000000E+00
  0.00000000E+00  0.00000000E+00  0.00000000E+00
  0.00000000E+00  0.00000000E+00  0.00000000E+00
  0.00000000E+00  0.00000000E+00  0.00000000E+00
  0.00000000E+00  0.00000000E+00  0.00000000E+00
  0.00000000E+00  0.00000000E+00  0.00000000E+00
  0.00000000E+00  0.00000000E+00  0.00000000E+00
  0.00000000E+00  0.00000000E+00  0.00000000E+00
  0.00000000E+00  0.00000000E+00  0.00000000E+00
  0.00000000E+00  0.00000000E+00  0.00000000E+00
  0.00000000E+00  0.00000000E+00  0.00000000E+00
  0.00000000E+00  0.00000000E+00  0.00000000E+00
  0.00000000E+00  0.00000000E+00  0.00000000E+00
  0.00000000E+00  0.00000000E+00  0.00000000E+00
  0.00000000E+00  0.00000000E+00  0.00000000E+00
  0.00000000E+00  0.00000000E+00  0.00000000E+00
  0.00000000E+00  0.00000000E+00  0.00000000E+00
  0.00000000E+00  0.00000000E+00  0.00000000E+00
  0.00000000E+00  0.00000000E+00  0.00000000E+00
  0.00000000E+00  0.00000000E+00  0.00000000E+00
  0.00000000E+00  0.00000000E+00  0.00000000E+00
  0.00000000E+00  0.00000000E+00  0.00000000E+00
  0.00000000E+00  0.00000000E+00  0.00000000E+00
  0.00000000E+00  0.00000000E+00  0.00000000E+00
  0.00000000E+00  0.00000000E+00  0.00000000E+00
  0.00000000E+00  0.00000000E+00  0.00000000E+00
