Li63 Ta65 O192                          
   1.00000000000000     
    15.0337320000000005   -0.0060940000000000   -0.0057460000000000
     0.9606630000000000   15.0030490000000007   -0.0057500000000000
     0.9606080000000000    0.9007180000000000   14.9759290000000007
   Li   Ta   O 
    63    65   192
Direct
  0.3854510987137445  0.3913070553086087  0.8895592030609905
  0.3913066645100187  0.8895595206546290  0.3854506486712594
  0.3896124698848666  0.8907118094565050  0.8896195826221458
  0.8895592404008781  0.3854510974372332  0.3913067541664930
  0.8896195062041414  0.3896126368001021  0.8907119183792602
  0.8907116552643544  0.8896195862413734  0.3896123251159125
  0.8901098361974320  0.8901099374853914  0.8901097634687716
  0.1357898988664132  0.3845904784710186  0.1360342616266763
  0.1381301347883479  0.3875946527166150  0.6430848622273757
  0.1395779683240406  0.8900380385953213  0.1391085985839879
  0.1387108290043244  0.8903764970715429  0.6408051716749483
  0.6433778018378575  0.3870819361941571  0.1385471911391889
  0.6414286066209272  0.3886531574315129  0.6431061056577008
  0.6407621979178515  0.8899814544293605  0.1393117146919920
  0.6405612874284827  0.8901020737995395  0.6403334185172866
  0.3845905006329673  0.1360343960844688  0.1357899665627755
  0.3870821757015790  0.1385474082564357  0.6433780078371001
  0.3875944747310029  0.6430849948343749  0.1381302809673315
  0.3886528640181908  0.6431060666233250  0.6414288663742269
  0.8900376213617918  0.1391090550081771  0.1395778847304285
  0.8899811986731692  0.1393118131844844  0.6407624310611340
  0.8903766172004950  0.6408051917047501  0.1387108359995253
  0.8901025525459616  0.6403336659686900  0.6405612292427776
  0.1360339522189449  0.1357899670458096  0.3845903215311850
  0.1391088628377872  0.1395783180264090  0.8900377654037470
  0.1385472817588251  0.6433780566833747  0.3870816279648466
  0.1393115285738205  0.6407625901021277  0.8899812154416011
  0.6430852179823603  0.1381300466074720  0.3875945683396651
  0.6408049757472796  0.1387110132960743  0.8903763043580852
  0.6431065823829130  0.6414291257433788  0.3886527056973463
  0.6403337263984810  0.6405612443191160  0.8901028262469026
  0.1389962458807901  0.1389970260815829  0.1389959055988754
  0.1369763464290088  0.1372076679845904  0.6450936551488269
  0.1372075470699059  0.6450937433793271  0.1369767050426489
  0.1384526981290435  0.6422929303966995  0.6446906881299270
  0.6450932605890145  0.1369766917837723  0.1372073275804340
  0.6446901001147012  0.1384526576177052  0.6422929086018314
  0.6422925817006018  0.6446901712966948  0.1384527914069764
  0.6408145039183211  0.6408147215420996  0.6408144159159477
  0.3858223061553758  0.1351675508473065  0.3864570665809950
  0.3881962857721817  0.1361791562991002  0.8896228184016692
  0.3881639730472557  0.6423717993780045  0.3878478022080216
  0.3893641578677105  0.6402075367231177  0.8907854625996166
  0.8901367721028777  0.1401460742328453  0.3889161873069753
  0.8905292976631358  0.1392681041026194  0.8897081936074187
  0.8897010509828291  0.6435641121770459  0.3891269019432073
  0.8899490250577884  0.6398960040012796  0.8898631779386008
  0.1351683682797287  0.3864570289806295  0.3858224727833743
  0.1401456766368341  0.3889164388671560  0.8901370910201578
  0.1361784580714058  0.8896231475308269  0.3881963775340651
  0.1392678550636717  0.8897083056218378  0.8905295592719966
  0.6423710875192299  0.3878485366978239  0.3881637557142028
  0.6435634951635478  0.3891270440232972  0.8897010585560139
  0.6402069314435295  0.8907852446778506  0.3893637219498771
  0.6398959332180567  0.8898631421389709  0.8899492140442078
  0.3864572442622105  0.3858224833576998  0.1351683570016959
  0.3878482680351070  0.3881636496971623  0.6423713033370575
  0.3889157476727334  0.8901375929280846  0.1401457118852463
  0.3891269310108214  0.8897009219693359  0.6435638268573740
  0.8896226965625615  0.3881965261472047  0.1361791159721832
  0.8907851057755991  0.3893643854641624  0.6402072746822185
  0.8897082593583505  0.8905300240689940  0.1392675684345974
  0.8898631928617959  0.8899493956946714  0.6398957169724255
  0.3923707741212183  0.3923709757359504  0.3923713309984933
  0.2473718764098223  0.2473720593435829  0.2473723614499121
  0.2484665472523133  0.2476446038529119  0.7490681822920635
  0.2476442320189491  0.7490689736998277  0.2484667887200303
  0.2479700024055163  0.7482879991904383  0.7490077388495493
  0.7490678409714988  0.2484670550174357  0.2476445313255979
  0.7490076333204954  0.2479706263073709  0.7482873369337852
  0.7482874483604434  0.7490084095994689  0.2479696070254107
  0.7481828721823831  0.7481829374161606  0.7481830380564247
  0.5028299669308538  0.2372884188463260  0.5011530690701633
  0.4979454216590256  0.2490834398250783  0.9932838355697839
  0.4979441564692948  0.7492404456613357  0.4980384113709633
  0.4980288257379968  0.7490200747388940  0.9982176755150576
  0.9989215602327164  0.2477561168685867  0.4985354817790082
  0.9987769078334594  0.2480119728746857  0.9979894710986983
  0.9982588386724629  0.7485490887103907  0.4987248774444382
  0.9977624766039028  0.7488069934944193  0.9979157472961546
  0.2372882182556495  0.5011540020689367  0.5028300822052216
  0.2477557623474667  0.4985361151973464  0.9989216504365288
  0.2490829996643242  0.9932836838716597  0.4979453986367730
  0.2480114417257226  0.9979896806530064  0.9987770638898965
  0.7492401234742658  0.4980387842793306  0.4979438912951437
  0.7485488261024642  0.4987250495872786  0.9982585670794748
  0.7490189226112989  0.9982181288867409  0.4980288126830459
  0.7488065785975522  0.9979158642639518  0.9977628029182597
  0.5011527636622191  0.5028298712466324  0.2372889903628845
  0.4980385466418582  0.4979439744741541  0.7492400979269220
  0.4985356820821281  0.9989219613568991  0.2477555785826766
  0.4987243095935696  0.9982583633533366  0.7485487521186869
  0.9932838343673325  0.4979460189177445  0.2490830207285626
  0.9982175561881306  0.4980295008833409  0.7490193753150862
  0.9979886362511294  0.9987775091322248  0.2480107394494055
  0.9979156648408463  0.9977632983025586  0.7488060645401831
  0.5024287343413008  0.5024288941619091  0.5024283073837736
  0.4992410294923815  0.4973007289601981  0.9950999779695664
  0.4972999757726839  0.9950998618673097  0.4992409981450905
  0.4984862368114449  0.9982486447529624  0.9984991461531436
  0.9950998230398369  0.4992415871984193  0.4972998050613526
  0.9984995714793499  0.4984866214453945  0.9982480320439322
  0.9982478385222322  0.9985000770506431  0.4984859747273589
  0.9983320548591763  0.9983326008169939  0.9983313078203366
  0.2371068718641780  0.5012849016191367  0.2442998589781524
  0.2474387528216582  0.4987673026486021  0.7489867786144515
  0.2478704997651491  0.9981911492266136  0.2482957160551749
  0.2475348989745427  0.9980535167536786  0.7491450609548806
  0.7495562373052636  0.4980332817515745  0.2483151247418931
  0.7483131277028434  0.4983351268390805  0.7484997308891579
  0.7487681484168505  0.9977903760271261  0.2483157598168120
  0.7482655820784103  0.9976223635581931  0.7486464921928402
  0.5012841517368400  0.2443001144967383  0.2371067659410002
  0.4980326159564896  0.2483153285175490  0.7495556798086298
  0.4987670928673396  0.7489875465127298  0.2474383576086225
  0.4983350232888313  0.7485000748286694  0.7483130164254277
  0.9981906287333615  0.2482962141088549  0.2478706810527243
  0.9977897192116885  0.2483163961496544  0.7487679187269691
  0.9980533031793328  0.7491457693766179  0.2475339648122414
  0.9976215707212575  0.7486471648444635  0.7482657666637422
  0.2443002711342572  0.2371060654579651  0.5012843053469780
  0.2482959636011586  0.2478712610037874  0.9981907859482106
  0.2483155686800700  0.7495562713302277  0.4980326145981593
  0.2483158176925144  0.7487685424440329  0.9977897914380165
  0.7489872040634253  0.2474399228397317  0.4987665212765862
  0.7491449921486932  0.2475348910347535  0.9980531361980809
  0.7484998202733095  0.7483134524795076  0.4983343967830436
  0.7486466792030555  0.7482663004632073  0.9976212587499873
  0.2083719953018957  0.3684535212878259  0.2708569812015895
  0.2093127726558777  0.3685690670262574  0.7701439327379802
  0.2082984619830199  0.8685735423745768  0.2720606901038920
  0.2087858463749726  0.8686284815653664  0.7713067571432788
  0.7069391044069206  0.3692569419025702  0.2688983444265389
  0.7084938535203449  0.3687275600566835  0.7696219166212259
  0.7077482913313133  0.8689806832137776  0.2704869813871014
  0.7080964600875674  0.8686026422766346  0.7703704507413036
  0.4587319330401058  0.3680416017380139  0.0218879712930899
  0.4546489499532598  0.3677256053084150  0.5117159615213964
  0.4586092283003467  0.8689435335786158  0.0216072414668602
  0.4574627420755490  0.8692594883185620  0.5219472219258279
  0.9589680795434461  0.3685887304255928  0.0201504272826227
  0.9586188579593937  0.3687154377772970  0.5192348422406710
  0.9581700242581022  0.8688624397504157  0.0207551969873023
  0.9587888455671703  0.8687966562063281  0.5204294982174460
  0.2088892247948806  0.1186590374067222  0.0209902986869324
  0.2077798773533601  0.1171448980466891  0.5236644371433599
  0.2087029253662962  0.6183591767956500  0.0217002520130407
  0.2072708186795964  0.6194664778030656  0.5240115968963295
  0.7084195269878677  0.1187450718491121  0.0193575148224596
  0.7076472869683812  0.1192054610119868  0.5198114340190969
  0.7082973890622526  0.6185992412463648  0.0207894544030012
  0.7078971965744856  0.6178885564661272  0.5198372417276147
  0.4584052137243972  0.1204159214797400  0.2723553520276738
  0.4586378197971825  0.1195077381473268  0.7706074363047151
  0.4576289697701768  0.6170016146711745  0.2721015600942920
  0.4588339623024851  0.6178463447607214  0.7711337471307260
  0.9578525119889889  0.1192354903156527  0.2702423097049262
  0.9588296030843537  0.1187597499715025  0.7702423524243400
  0.9576324570434096  0.6183622428327524  0.2709555804986721
  0.9586909745742602  0.6184455307076959  0.7703708741297106
  0.2708570692376639  0.2083713799753681  0.3684531350126861
  0.2720603603432394  0.2082986758412275  0.8685732507277351
  0.2688983593332352  0.7069393456061590  0.3692570707552534
  0.2704867690530151  0.7077484664037001  0.8689809414068890
  0.7701433931402519  0.2093129830572735  0.3685695098766004
  0.7713066299510203  0.2087862182718538  0.8686282139844437
  0.7696217479097314  0.7084939183417589  0.3687273889295923
  0.7703703528326145  0.7080983142774002  0.8686049121516248
  0.0209898985137684  0.2088888307555479  0.1186590399850900
  0.0217000377870846  0.2087029111332583  0.6183591552145771
  0.0193573431116718  0.7084192758465306  0.1187451186547079
  0.0207906285733728  0.7082966315149903  0.6185997955658209
  0.5236635146775583  0.2077794152279253  0.1171454417235793
  0.5240113906124364  0.2072707169277237  0.6194666152706318
  0.5198115157500638  0.7076477351990746  0.1192053711955268
  0.5198375139839939  0.7078965872666245  0.6178888975305412
  0.2723557229312163  0.4584052910359588  0.1204162190623848
  0.2721022885048114  0.4576284790885623  0.6170004489636867
  0.2702426439679471  0.9578524720495594  0.1192358219198084
  0.2709554637831459  0.9576323629672956  0.6183624057198074
  0.7706076310648271  0.4586376993471930  0.1195080837433409
  0.7711337020694202  0.4588341315571327  0.6178464278569393
  0.7702421080217263  0.9588288477624829  0.1187596247941300
  0.7703709938585419  0.9586906306740133  0.6184455706770393
  0.0218881301130054  0.4587319522558460  0.3680414963589058
  0.0216070541338453  0.4586093400245659  0.8689433634849806
  0.0201502978988799  0.9589684210651797  0.3685887477532077
  0.0207561418138624  0.9581696190993299  0.8688619593629170
  0.5117158957823236  0.4546490316208036  0.3677258335314164
  0.5219468522617134  0.4574625143714073  0.8692598074358031
  0.5192346322624743  0.9586188468152557  0.3687152540501089
  0.5204296561493393  0.9587884357471310  0.8687964722833499
  0.3684533082755905  0.2708565692439393  0.2083719542155009
  0.3692564985385403  0.2688984092148559  0.7069381370785024
  0.3685691037738152  0.7701441152857171  0.2093131103708998
  0.3687274349633327  0.7696216899414736  0.7084939305667888
  0.8685736848285828  0.2720597626541092  0.2082986702202092
  0.8689805424287371  0.2704869245932997  0.7077481644482262
  0.8686283701515691  0.7713067472936928  0.2087858036956689
  0.8686027644716816  0.7703707266867283  0.7080958226938989
  0.1204158299449603  0.2723553753506422  0.4584049764477882
  0.1192354839992333  0.2702429368945332  0.9578524932969259
  0.1195078764558701  0.7706074853828326  0.4586376243540400
  0.1187595878830123  0.7702423759817023  0.9588288071896471
  0.6170002625483377  0.2721022230429710  0.4576284433301581
  0.6183618790050360  0.2709555715491234  0.9576322098975822
  0.6178461209692898  0.7711338405755157  0.4588339936095878
  0.6184451828436934  0.7703710626299483  0.9586906826803485
  0.3680412008013434  0.0218872393412397  0.4587314864021010
  0.3685885505961792  0.0201507432317314  0.9589681248379591
  0.3677255267904584  0.5117158266917770  0.4546490699133940
  0.3687151205555352  0.5192347569159423  0.9586188496808816
  0.8689423122371096  0.0216088020949172  0.4586094517910411
  0.8688625128700238  0.0207556732347811  0.9581693288948756
  0.8692596742064254  0.5219471035382526  0.4574623471159001
  0.8687962621496013  0.5204297914678975  0.9587886455566164
  0.1186586098338935  0.0209902804505262  0.2088887201537872
  0.1187448585081654  0.0193577414127191  0.7084189672330581
  0.1171455037785591  0.5236632638401701  0.2077794462834959
  0.1192052611439181  0.5198111859025758  0.7076472989899898
  0.6183588928220516  0.0217002687577192  0.2087027800930485
  0.6185992436776573  0.0207890931386103  0.7082972929011149
  0.6194660920233019  0.5240104623248385  0.2072716310491813
  0.6178883919211628  0.5198375352702485  0.7078968541639554
  0.2080919039493097  0.2705524914259314  0.1186217986616427
  0.2095544170577739  0.2730065169610469  0.6172187029384091
  0.2088985588256946  0.7696901907136251  0.1191913894484102
  0.2096337356976008  0.7719145183855431  0.6179853532764028
  0.7075534265329395  0.2691531318508851  0.1188140096022039
  0.7079356273073856  0.2701329254518470  0.6185746841034430
  0.7084434209068604  0.7696716243277564  0.1187525865891530
  0.7081646261719428  0.7701835481120654  0.6184704536853545
  0.4515393283239177  0.2787313854505697  0.3670138223725914
  0.4569295277559249  0.2737765362986195  0.8687174118915593
  0.4584302504691493  0.7698324011302660  0.3687739043060816
  0.4588522697904551  0.7706341651135418  0.8687534060963458
  0.9590924912502885  0.2701710721680755  0.3686700738028605
  0.9582383078555097  0.2707496397857767  0.8687491865722592
  0.9591439466102614  0.7698407060344294  0.3687117580676613
  0.9583425258590736  0.7706700389157817  0.8687143646193576
  0.2087161287246886  0.0213328347480015  0.3690213003873524
  0.2085219994686014  0.0212983420224475  0.8688838198670368
  0.2096740541639122  0.5196476149462654  0.3690809524969154
  0.2091847189865277  0.5209072980799405  0.8691138068136723
  0.7084285854024515  0.0200419498679949  0.3687526314789409
  0.7081076244485232  0.0202549267763743  0.8686961362634946
  0.7060456821184360  0.5189351835988418  0.3686005102587018
  0.7079421899360199  0.5200127102538019  0.8690479017994264
  0.4584341688958915  0.0219065331076038  0.1190510937328924
  0.4585344922069226  0.0227286067725814  0.6179416568049660
  0.4550813859919316  0.5205441934590880  0.1192612649450311
  0.4567117874673983  0.5225508235758767  0.6180635771296465
  0.9582393484814631  0.0207143260365328  0.1187554164141957
  0.9587377120248988  0.0209670923796352  0.6184557441333993
  0.9575828953706136  0.5198866299590108  0.1192583566779248
  0.9592764632786484  0.5203668633504890  0.6178311118962725
  0.1186216355628318  0.2080918140270924  0.2705527950684683
  0.1191895858268097  0.2088970387003002  0.7696898787739457
  0.1188137488208412  0.7075539210148705  0.2691532135259038
  0.1187519939956374  0.7084436024417684  0.7696722803708695
  0.6172187794295994  0.2095546260069909  0.2730070130464952
  0.6179848918394200  0.2096338996815916  0.7719147233945804
  0.6185744778810900  0.7079363335147875  0.2701330406489149
  0.6184700877217395  0.7081645681607966  0.7701843169843272
  0.3690211991894117  0.2087167239240415  0.0213328486403341
  0.3690809643630502  0.2096739440988600  0.5196477306858114
  0.3687527361324641  0.7084289453007955  0.0200422222615231
  0.3686006442088043  0.7060453653310077  0.5189352969051910
  0.8688839088255236  0.2085222683447867  0.0212982727484246
  0.8691137480030946  0.2091851640588445  0.5209077380618936
  0.8686961375621820  0.7081079472231977  0.0202555024975197
  0.8690481005785315  0.7079424728398962  0.5200128576462788
  0.1190511647951453  0.4584345180567411  0.0219066400289236
  0.1192612684457472  0.4550817971481962  0.5205442877955520
  0.1187550710862908  0.9582408770175022  0.0207151178366232
  0.1192579117004300  0.9575826930655751  0.5198866436383938
  0.6179415639347994  0.4585349438079547  0.0227291101034481
  0.6180636502961292  0.4567120304716283  0.5225508211474406
  0.6184555935875196  0.9587376768220679  0.0209670915895614
  0.6178309542340159  0.9592766820984977  0.5203668072881413
  0.3670135948592446  0.4515398340121806  0.2787313107906755
  0.3687739546349320  0.4584302237479605  0.7698324696509857
  0.3686697377542245  0.9590928421628675  0.2701711203603239
  0.3687116628919611  0.9591436262127644  0.7698407049645937
  0.8687178732503682  0.4569297170871209  0.2737766693581847
  0.8687536809212659  0.4588526207784085  0.7706342177520327
  0.8687488867447968  0.9582385694350819  0.2707492640667866
  0.8687143060532492  0.9583430868086467  0.7706703012755796
  0.2705520101945993  0.1186212748209101  0.2080922613371783
  0.2691533172979632  0.1188138855392538  0.7075538229823408
  0.2730062637546311  0.6172189437308546  0.2095552032112309
  0.2701331138900542  0.6185742145366078  0.7079365471275949
  0.7696890455564898  0.1191904229631433  0.2088990154962360
  0.7696717922686034  0.1187522322684345  0.7084434198559322
  0.7719145451213123  0.6179849506016879  0.2096336532372760
  0.7701843570735676  0.6184699035768517  0.7081653800038836
  0.0219064901993562  0.1190509948888518  0.4584344898543122
  0.0207157060514689  0.1187551593557004  0.9582407687707217
  0.0227289262884014  0.6179414844943238  0.4585350534170161
  0.0209669595361603  0.6184555352444008  0.9587377788760421
  0.5205438366321431  0.1192611388487919  0.4550818142978059
  0.5198871801324927  0.1192579443746880  0.9575830243292884
  0.5225510077828943  0.6180636597074809  0.4567118938724875
  0.5203670027504259  0.6178310088955641  0.9592767745587096
  0.2787311235866383  0.3670134005160435  0.4515392726269027
  0.2701710304440397  0.3686698502915178  0.9590928749673537
  0.2737766501361278  0.8687174879260411  0.4569301667297694
  0.2707495567347422  0.8687490195364234  0.9582386955342201
  0.7698325451244017  0.3687738308447166  0.4584305526393919
  0.7698408582619223  0.3687113274585698  0.9591441852701550
  0.7706341998844337  0.8687534326265265  0.4588529900055036
  0.7706701010095003  0.8687143804336088  0.9583429801384185
  0.0213328533596879  0.3690210797209375  0.2087164689137708
  0.0200421433027103  0.3687528054113258  0.7084289282151204
  0.0212981943164792  0.8688838512510841  0.2085221125545829
  0.0202549168347375  0.8686960528989829  0.7081082495598991
  0.5196472721568242  0.3690807115435959  0.2096742064939932
  0.5189352171453407  0.3686004855317293  0.7060455134245629
  0.5209078053712872  0.8691137375483819  0.2091849984089720
  0.5200131870103064  0.8690479972519398  0.7079421385020979
 
  0.00000000E+00  0.00000000E+00  0.00000000E+00
  0.00000000E+00  0.00000000E+00  0.00000000E+00
  0.00000000E+00  0.00000000E+00  0.00000000E+00
  0.00000000E+00  0.00000000E+00  0.00000000E+00
  0.00000000E+00  0.00000000E+00  0.00000000E+00
  0.00000000E+00  0.00000000E+00  0.00000000E+00
  0.00000000E+00  0.00000000E+00  0.00000000E+00
  0.00000000E+00  0.00000000E+00  0.00000000E+00
  0.00000000E+00  0.00000000E+00  0.00000000E+00
  0.00000000E+00  0.00000000E+00  0.00000000E+00
  0.00000000E+00  0.00000000E+00  0.00000000E+00
  0.00000000E+00  0.00000000E+00  0.00000000E+00
  0.00000000E+00  0.00000000E+00  0.00000000E+00
  0.00000000E+00  0.00000000E+00  0.00000000E+00
  0.00000000E+00  0.00000000E+00  0.00000000E+00
  0.00000000E+00  0.00000000E+00  0.00000000E+00
  0.00000000E+00  0.00000000E+00  0.00000000E+00
  0.00000000E+00  0.00000000E+00  0.00000000E+00
  0.00000000E+00  0.00000000E+00  0.00000000E+00
  0.00000000E+00  0.00000000E+00  0.00000000E+00
  0.00000000E+00  0.00000000E+00  0.00000000E+00
  0.00000000E+00  0.00000000E+00  0.00000000E+00
  0.00000000E+00  0.00000000E+00  0.00000000E+00
  0.00000000E+00  0.00000000E+00  0.00000000E+00
  0.00000000E+00  0.00000000E+00  0.00000000E+00
  0.00000000E+00  0.00000000E+00  0.00000000E+00
  0.00000000E+00  0.00000000E+00  0.00000000E+00
  0.00000000E+00  0.00000000E+00  0.00000000E+00
  0.00000000E+00  0.00000000E+00  0.00000000E+00
  0.00000000E+00  0.00000000E+00  0.00000000E+00
  0.00000000E+00  0.00000000E+00  0.00000000E+00
  0.00000000E+00  0.00000000E+00  0.00000000E+00
  0.00000000E+00  0.00000000E+00  0.00000000E+00
  0.00000000E+00  0.00000000E+00  0.00000000E+00
  0.00000000E+00  0.00000000E+00  0.00000000E+00
  0.00000000E+00  0.00000000E+00  0.00000000E+00
  0.00000000E+00  0.00000000E+00  0.00000000E+00
  0.00000000E+00  0.00000000E+00  0.00000000E+00
  0.00000000E+00  0.00000000E+00  0.00000000E+00
  0.00000000E+00  0.00000000E+00  0.00000000E+00
  0.00000000E+00  0.00000000E+00  0.00000000E+00
  0.00000000E+00  0.00000000E+00  0.00000000E+00
  0.00000000E+00  0.00000000E+00  0.00000000E+00
  0.00000000E+00  0.00000000E+00  0.00000000E+00
  0.00000000E+00  0.00000000E+00  0.00000000E+00
  0.00000000E+00  0.00000000E+00  0.00000000E+00
  0.00000000E+00  0.00000000E+00  0.00000000E+00
  0.00000000E+00  0.00000000E+00  0.00000000E+00
  0.00000000E+00  0.00000000E+00  0.00000000E+00
  0.00000000E+00  0.00000000E+00  0.00000000E+00
  0.00000000E+00  0.00000000E+00  0.00000000E+00
  0.00000000E+00  0.00000000E+00  0.00000000E+00
  0.00000000E+00  0.00000000E+00  0.00000000E+00
  0.00000000E+00  0.00000000E+00  0.00000000E+00
  0.00000000E+00  0.00000000E+00  0.00000000E+00
  0.00000000E+00  0.00000000E+00  0.00000000E+00
  0.00000000E+00  0.00000000E+00  0.00000000E+00
  0.00000000E+00  0.00000000E+00  0.00000000E+00
  0.00000000E+00  0.00000000E+00  0.00000000E+00
  0.00000000E+00  0.00000000E+00  0.00000000E+00
  0.00000000E+00  0.00000000E+00  0.00000000E+00
  0.00000000E+00  0.00000000E+00  0.00000000E+00
  0.00000000E+00  0.00000000E+00  0.00000000E+00
  0.00000000E+00  0.00000000E+00  0.00000000E+00
  0.00000000E+00  0.00000000E+00  0.00000000E+00
  0.00000000E+00  0.00000000E+00  0.00000000E+00
  0.00000000E+00  0.00000000E+00  0.00000000E+00
  0.00000000E+00  0.00000000E+00  0.00000000E+00
  0.00000000E+00  0.00000000E+00  0.00000000E+00
  0.00000000E+00  0.00000000E+00  0.00000000E+00
  0.00000000E+00  0.00000000E+00  0.00000000E+00
  0.00000000E+00  0.00000000E+00  0.00000000E+00
  0.00000000E+00  0.00000000E+00  0.00000000E+00
  0.00000000E+00  0.00000000E+00  0.00000000E+00
  0.00000000E+00  0.00000000E+00  0.00000000E+00
  0.00000000E+00  0.00000000E+00  0.00000000E+00
  0.00000000E+00  0.00000000E+00  0.00000000E+00
  0.00000000E+00  0.00000000E+00  0.00000000E+00
  0.00000000E+00  0.00000000E+00  0.00000000E+00
  0.00000000E+00  0.00000000E+00  0.00000000E+00
  0.00000000E+00  0.00000000E+00  0.00000000E+00
  0.00000000E+00  0.00000000E+00  0.00000000E+00
  0.00000000E+00  0.00000000E+00  0.00000000E+00
  0.00000000E+00  0.00000000E+00  0.00000000E+00
  0.00000000E+00  0.00000000E+00  0.00000000E+00
  0.00000000E+00  0.00000000E+00  0.00000000E+00
  0.00000000E+00  0.00000000E+00  0.00000000E+00
  0.00000000E+00  0.00000000E+00  0.00000000E+00
  0.00000000E+00  0.00000000E+00  0.00000000E+00
  0.00000000E+00  0.00000000E+00  0.00000000E+00
  0.00000000E+00  0.00000000E+00  0.00000000E+00
  0.00000000E+00  0.00000000E+00  0.00000000E+00
  0.00000000E+00  0.00000000E+00  0.00000000E+00
  0.00000000E+00  0.00000000E+00  0.00000000E+00
  0.00000000E+00  0.00000000E+00  0.00000000E+00
  0.00000000E+00  0.00000000E+00  0.00000000E+00
  0.00000000E+00  0.00000000E+00  0.00000000E+00
  0.00000000E+00  0.00000000E+00  0.00000000E+00
  0.00000000E+00  0.00000000E+00  0.00000000E+00
  0.00000000E+00  0.00000000E+00  0.00000000E+00
  0.00000000E+00  0.00000000E+00  0.00000000E+00
  0.00000000E+00  0.00000000E+00  0.00000000E+00
  0.00000000E+00  0.00000000E+00  0.00000000E+00
  0.00000000E+00  0.00000000E+00  0.00000000E+00
  0.00000000E+00  0.00000000E+00  0.00000000E+00
  0.00000000E+00  0.00000000E+00  0.00000000E+00
  0.00000000E+00  0.00000000E+00  0.00000000E+00
  0.00000000E+00  0.00000000E+00  0.00000000E+00
  0.00000000E+00  0.00000000E+00  0.00000000E+00
  0.00000000E+00  0.00000000E+00  0.00000000E+00
  0.00000000E+00  0.00000000E+00  0.00000000E+00
  0.00000000E+00  0.00000000E+00  0.00000000E+00
  0.00000000E+00  0.00000000E+00  0.00000000E+00
  0.00000000E+00  0.00000000E+00  0.00000000E+00
  0.00000000E+00  0.00000000E+00  0.00000000E+00
  0.00000000E+00  0.00000000E+00  0.00000000E+00
  0.00000000E+00  0.00000000E+00  0.00000000E+00
  0.00000000E+00  0.00000000E+00  0.00000000E+00
  0.00000000E+00  0.00000000E+00  0.00000000E+00
  0.00000000E+00  0.00000000E+00  0.00000000E+00
  0.00000000E+00  0.00000000E+00  0.00000000E+00
  0.00000000E+00  0.00000000E+00  0.00000000E+00
  0.00000000E+00  0.00000000E+00  0.00000000E+00
  0.00000000E+00  0.00000000E+00  0.00000000E+00
  0.00000000E+00  0.00000000E+00  0.00000000E+00
  0.00000000E+00  0.00000000E+00  0.00000000E+00
  0.00000000E+00  0.00000000E+00  0.00000000E+00
  0.00000000E+00  0.00000000E+00  0.00000000E+00
  0.00000000E+00  0.00000000E+00  0.00000000E+00
  0.00000000E+00  0.00000000E+00  0.00000000E+00
  0.00000000E+00  0.00000000E+00  0.00000000E+00
  0.00000000E+00  0.00000000E+00  0.00000000E+00
  0.00000000E+00  0.00000000E+00  0.00000000E+00
  0.00000000E+00  0.00000000E+00  0.00000000E+00
  0.00000000E+00  0.00000000E+00  0.00000000E+00
  0.00000000E+00  0.00000000E+00  0.00000000E+00
  0.00000000E+00  0.00000000E+00  0.00000000E+00
  0.00000000E+00  0.00000000E+00  0.00000000E+00
  0.00000000E+00  0.00000000E+00  0.00000000E+00
  0.00000000E+00  0.00000000E+00  0.00000000E+00
  0.00000000E+00  0.00000000E+00  0.00000000E+00
  0.00000000E+00  0.00000000E+00  0.00000000E+00
  0.00000000E+00  0.00000000E+00  0.00000000E+00
  0.00000000E+00  0.00000000E+00  0.00000000E+00
  0.00000000E+00  0.00000000E+00  0.00000000E+00
  0.00000000E+00  0.00000000E+00  0.00000000E+00
  0.00000000E+00  0.00000000E+00  0.00000000E+00
  0.00000000E+00  0.00000000E+00  0.00000000E+00
  0.00000000E+00  0.00000000E+00  0.00000000E+00
  0.00000000E+00  0.00000000E+00  0.00000000E+00
  0.00000000E+00  0.00000000E+00  0.00000000E+00
  0.00000000E+00  0.00000000E+00  0.00000000E+00
  0.00000000E+00  0.00000000E+00  0.00000000E+00
  0.00000000E+00  0.00000000E+00  0.00000000E+00
  0.00000000E+00  0.00000000E+00  0.00000000E+00
  0.00000000E+00  0.00000000E+00  0.00000000E+00
  0.00000000E+00  0.00000000E+00  0.00000000E+00
  0.00000000E+00  0.00000000E+00  0.00000000E+00
  0.00000000E+00  0.00000000E+00  0.00000000E+00
  0.00000000E+00  0.00000000E+00  0.00000000E+00
  0.00000000E+00  0.00000000E+00  0.00000000E+00
  0.00000000E+00  0.00000000E+00  0.00000000E+00
  0.00000000E+00  0.00000000E+00  0.00000000E+00
  0.00000000E+00  0.00000000E+00  0.00000000E+00
  0.00000000E+00  0.00000000E+00  0.00000000E+00
  0.00000000E+00  0.00000000E+00  0.00000000E+00
  0.00000000E+00  0.00000000E+00  0.00000000E+00
  0.00000000E+00  0.00000000E+00  0.00000000E+00
  0.00000000E+00  0.00000000E+00  0.00000000E+00
  0.00000000E+00  0.00000000E+00  0.00000000E+00
  0.00000000E+00  0.00000000E+00  0.00000000E+00
  0.00000000E+00  0.00000000E+00  0.00000000E+00
  0.00000000E+00  0.00000000E+00  0.00000000E+00
  0.00000000E+00  0.00000000E+00  0.00000000E+00
  0.00000000E+00  0.00000000E+00  0.00000000E+00
  0.00000000E+00  0.00000000E+00  0.00000000E+00
  0.00000000E+00  0.00000000E+00  0.00000000E+00
  0.00000000E+00  0.00000000E+00  0.00000000E+00
  0.00000000E+00  0.00000000E+00  0.00000000E+00
  0.00000000E+00  0.00000000E+00  0.00000000E+00
  0.00000000E+00  0.00000000E+00  0.00000000E+00
  0.00000000E+00  0.00000000E+00  0.00000000E+00
  0.00000000E+00  0.00000000E+00  0.00000000E+00
  0.00000000E+00  0.00000000E+00  0.00000000E+00
  0.00000000E+00  0.00000000E+00  0.00000000E+00
  0.00000000E+00  0.00000000E+00  0.00000000E+00
  0.00000000E+00  0.00000000E+00  0.00000000E+00
  0.00000000E+00  0.00000000E+00  0.00000000E+00
  0.00000000E+00  0.00000000E+00  0.00000000E+00
  0.00000000E+00  0.00000000E+00  0.00000000E+00
  0.00000000E+00  0.00000000E+00  0.00000000E+00
  0.00000000E+00  0.00000000E+00  0.00000000E+00
  0.00000000E+00  0.00000000E+00  0.00000000E+00
  0.00000000E+00  0.00000000E+00  0.00000000E+00
  0.00000000E+00  0.00000000E+00  0.00000000E+00
  0.00000000E+00  0.00000000E+00  0.00000000E+00
  0.00000000E+00  0.00000000E+00  0.00000000E+00
  0.00000000E+00  0.00000000E+00  0.00000000E+00
  0.00000000E+00  0.00000000E+00  0.00000000E+00
  0.00000000E+00  0.00000000E+00  0.00000000E+00
  0.00000000E+00  0.00000000E+00  0.00000000E+00
  0.00000000E+00  0.00000000E+00  0.00000000E+00
  0.00000000E+00  0.00000000E+00  0.00000000E+00
  0.00000000E+00  0.00000000E+00  0.00000000E+00
  0.00000000E+00  0.00000000E+00  0.00000000E+00
  0.00000000E+00  0.00000000E+00  0.00000000E+00
  0.00000000E+00  0.00000000E+00  0.00000000E+00