Li95 Nb32 O128                          
   1.00000000000000     
    13.7806110000000004   -0.0000030000000000   -4.8721819999999996
    -6.8903090000000002   11.9343559999999993   -4.8721850000000000
     0.0000000000000000   -0.0000040000000000   14.6165459999999996
   Li   Nb   O 
    95    32   128
Direct
  0.0007756553427924  0.1367308513516576  0.2574168781755546
  0.0001068584087776  0.1368615267110300  0.7576354097499376
  0.9998932738554842  0.6367549129781267  0.2575290307367339
  0.9992242740386743  0.6359556806251092  0.7566417626681883
  0.5000001014321569  0.1362585666599827  0.7566330842764160
  0.5000000090926946  0.6357302434461261  0.2579401369389487
  0.5000002424984729  0.6328374035033164  0.7537926410743268
  0.3633073556057838  0.3630675298450186  0.1215403378701865
  0.3617214128199890  0.3635805733838211  0.6214027783276137
  0.3589016329642476  0.8593108220045522  0.1197859501146255
  0.3631541873409603  0.8633106954804362  0.6204616042286517
  0.8656886151978611  0.3652773627813417  0.1210925268105854
  0.8620193786371502  0.3630561754369310  0.6200116888429363
  0.8642937177692005  0.8639086351999126  0.1212510497225594
  0.8631824301599309  0.8631552204122670  0.6207911794095011
  0.1379816234770814  0.0010373353950897  0.2579932854400653
  0.1343108608860106  0.9995888914817144  0.7554037889496570
  0.1368174605246395  0.4999727832343837  0.2576087363473292
  0.1357064960756063  0.4996155204777253  0.7569573199522495
  0.6410990543802910  0.0004092842700985  0.2608851764207074
  0.6368466807388700  0.0001572210688465  0.7573076179785829
  0.6366925948033568  0.4997599925816303  0.2582329632105598
  0.6382783824975817  0.5018589830707967  0.7596811848698763
  0.0012210110214639  0.2576921752936130  0.1365494653674375
  0.9998856741094002  0.2576180397077295  0.6366007062231489
  0.0001141670211524  0.7577323447654507  0.1367154310799776
  0.9987781988514683  0.7564710968413308  0.6353284435700814
  0.5000000046494080  0.2571107793061884  0.1385011224241737
  0.5000001051909422  0.2582861737017055  0.6383875071519824
  0.4999999769375165  0.7572643956213767  0.1377511935112565
  0.5000000013337527  0.7569166079172192  0.6349698197382097
  0.1364336938721564  0.2574379337086441  0.9998358370045111
  0.1360817295629246  0.2575902282101055  0.4997019545112451
  0.1353131836093482  0.7567250510906547  0.9997366262496783
  0.1362514417271399  0.7573518729002942  0.4997084180883178
  0.6385958966359908  0.2596107705611956  0.9996432078137261
  0.6326825940050824  0.2553833413807993  0.4955737416292862
  0.6396929168050747  0.7561943723363527  0.0002551464558138
  0.6359055704771919  0.7566786583222296  0.4996748680779959
  0.3673184357176282  0.1227015668553122  0.3628911923556544
  0.3614040239957248  0.1210145645515723  0.8610471435904117
  0.3640946546505006  0.6207733356904228  0.3637696137839441
  0.3603069151621341  0.6165017111417797  0.8605623109003346
  0.8646867556465168  0.1214118039667866  0.3644233073132952
  0.8637485195264532  0.1211004812929701  0.8634570593516600
  0.8635660472552615  0.6210041860462212  0.3634021527025695
  0.8639185595548540  0.6215086463630755  0.8636205423952745
  0.1208210276323953  0.3634840536965669  0.3635749186815431
  0.1208837848144171  0.3635592778328984  0.8631824786090831
  0.1205174687694281  0.8633300145818339  0.3632845168446082
  0.1184157053519357  0.8617288023648157  0.8613188751989256
  0.6151173765868236  0.3516206163499689  0.3602157791552756
  0.6209646514175873  0.3634451243869918  0.8635912959478702
  0.6206196746000927  0.8639257992345364  0.3634746265059476
  0.6217101228464728  0.8613629684383000  0.8611627442694925
  0.2563410600250293  0.1389874739080881  0.9994609334958540
  0.2579943195715870  0.1374341737521334  0.5002801754110990
  0.2559545736421143  0.6344855899510904  0.9992623587498812
  0.2575272894088343  0.6372231274302393  0.4998522204543363
  0.7607142729922458  0.1392586003790868  0.0003218953301314
  0.7592680482204202  0.1369546220437812  0.5015713182516990
  0.7579612330978520  0.6368494084491516  0.0005251381863687
  0.7572757001318422  0.6364683686049446  0.4998676675568774
  0.2604487706702443  0.0009802853890974  0.1393224808519449
  0.2562697384926054  0.9998412034468345  0.6347649408300100
  0.2581902599482575  0.5000235034866378  0.1374661423728938
  0.2562349071869221  0.4992167034237838  0.6353983805060821
  0.7570926801324163  0.0004445272720019  0.1369174387390473
  0.7570378024747413  0.9998930461492250  0.6365488734650029
  0.7574951815571964  0.5007162752908343  0.1364064211460203
  0.7565943495261962  0.5000865327647759  0.6366238221903089
  0.3848826214662182  0.2365036361639383  0.2450987437413517
  0.3790350897042458  0.2424807124543804  0.7426262433684911
  0.3793807356266328  0.7433063612524009  0.2428552010099878
  0.3782895775787765  0.7396520693026503  0.7394526654572005
  0.8815843251840079  0.2433130225760820  0.2429027945908047
  0.8794830562152640  0.2428127495772969  0.7427667999577068
  0.8791163527922308  0.7426752534491854  0.2422986195359016
  0.8791790950202909  0.7426631509290971  0.7427545012751864
  0.2434057504454330  0.2434920619445293  0.3800296372424157
  0.2425050130031039  0.2432213718466230  0.8789114144542225
  0.2429620293119896  0.7428550491761783  0.3795105716711049
  0.2429073245443689  0.7433520352529825  0.8798248167190863
  0.7395512346060684  0.2405313932454334  0.3788731824636784
  0.7437302294825088  0.2435720137704251  0.8784958083229952
  0.7418095578730757  0.7418330808517837  0.3792759411438027
  0.7437656113821163  0.7429814022222700  0.8791631025586852
  0.2427238260948599  0.3791927900868686  0.2425915768767766
  0.2420393494433242  0.3788887449824969  0.7425637206811757
  0.2407323268363655  0.8776869972467622  0.2423037137181296
  0.2392851160270197  0.8785451911020417  0.7396072401754026
  0.7436587263255916  0.3826459264177444  0.2431197940345697
  0.7420060158367363  0.3794404208412203  0.7422859555397494
  0.7440453739281949  0.8785313632594338  0.2433078619837090
  0.7424725528461451  0.8796956167826764  0.7423247400352651
  0.0004232642905535  0.0003680512188708  0.3590641005332600
  0.9995451537874587  0.0000703194632550  0.8589305580932347
  0.0004545708886425  0.5005248215796669  0.3593853610487372
  0.9995763517329692  0.4999457271432064  0.8586413168888498
  0.5000002941644723  0.0028167832326673  0.3567454546573927
  0.5000002148710934  0.0000134399787726  0.8600428796991864
  0.5000000449299193  0.4984872721813787  0.3595131942384668
  0.4999999777680202  0.4998862663932115  0.8594535708944875
  0.0006258069987339  0.3592224186346868  0.9997424174684824
  0.9996158244675470  0.3592018059890805  0.5000932719768159
  0.0003846160895975  0.8595857994349814  0.0004778037426547
  0.9993736537247742  0.8585967262346372  0.4991167101215552
  0.5000000448511628  0.3586752447978441  0.0000090932031966
  0.5000002802259473  0.3609203828355092  0.5041060210973569
  0.5000003812701692  0.8529569251084226  0.9966389463274794
  0.5000002788193001  0.8593689704825138  0.4990969646023231
  0.3557015619751596  0.0024104188526053  0.9995537287745790
  0.3590373677338548  0.9997872059858253  0.4991392392072882
  0.3591655170897425  0.4998183440727288  0.0004280287116387
  0.3585440402995275  0.5004934282110725  0.4998311531564710
  0.8594066967087741  0.0003252039196227  0.0003764547445542
  0.8592525593657427  0.9994884375478321  0.5003819487968073
  0.8593551747710393  0.5004535023963683  0.9999877051862214
  0.8577730115501652  0.4992813948525168  0.4991145759390889
  0.1422270583569087  0.1415083131261383  0.1413412082398153
  0.1406456134281697  0.1410992651547858  0.6406327020504179
  0.1407473297322355  0.6402359743841330  0.1411288634437469
  0.1405932140016830  0.6409188350472519  0.6409700328320582
  0.6442979243214779  0.1467081215831740  0.1438513552369685
  0.6409629056728505  0.1407499724886634  0.6401021294112894
  0.6408346808088581  0.6406529684523008  0.1412627110972480
  0.6414561828722043  0.6419495919969265  0.6412872597623149
  0.0007263237843134  0.3799175663705228  0.2564505152547909
  0.9997935275818790  0.3792946165785551  0.7560057078676934
  0.0002048284374112  0.8794998039871516  0.2562111618746670
  0.9992734941049406  0.8791909138828728  0.7557243302372356
  0.4999997923011108  0.3778078108527154  0.2571638158608565
  0.4999999281659129  0.3790521639870974  0.7572095703949486
  0.5000000979906360  0.8802077548304581  0.2549977309134590
  0.4999994226197231  0.8791960575179090  0.7577164241154222
  0.1209303384986740  0.1212107503541944  0.3769393864769484
  0.1201636345170201  0.1206150062478528  0.8762224838585908
  0.1211403468153947  0.6214485957438782  0.3773805029809409
  0.1205711495765840  0.6207089401075194  0.8767546979499770
  0.6263311642168716  0.1199777889900346  0.3802383996248651
  0.6207420435465991  0.1202535810828067  0.8779580244485814
  0.6203147816085917  0.6196487039603653  0.3769103480472467
  0.6211706598510816  0.6203804156649966  0.8771308718889728
  0.3736694792537847  0.9936471019812174  0.2539081468899056
  0.3792573714979923  0.9995104154950170  0.7572155983359252
  0.3796852459876945  0.4993337778751084  0.2565953618820203
  0.3788293998550998  0.4992098836471470  0.7559601719712816
  0.8794290610455633  0.0001380051227429  0.2561836398707484
  0.8788596452104898  0.0003084078750959  0.7562402819916727
  0.8798364986328977  0.5004513485120015  0.2560588847403551
  0.8790697712446729  0.5002810467400636  0.7560094474632209
  0.9998222892729487  0.2562761353528202  0.3793382139072463
  0.0002033864355298  0.2561353755445310  0.8789436750979434
  0.9997964108216735  0.7559319548602730  0.3787404010384989
  0.0001777395284037  0.7564536932183827  0.8795162406495010
  0.4999999852397465  0.2595933363349303  0.3851906384768498
  0.5000000109496483  0.2552535980491371  0.8794121557633616
  0.4999999339124770  0.7560420677610935  0.3787842087093338
  0.5000000801079878  0.7523916752254749  0.8766095478291049
  0.3787903284946523  0.2559898714157356  0.9993657818445527
  0.3786288255851957  0.2575950143900982  0.5030204667972455
  0.3793704955492316  0.7548284271575341  0.9998706320819934
  0.3795911615086922  0.7570035107473956  0.5003709352408805
  0.8796958896769524  0.2563744805997601  0.9995297939850332
  0.8795420295997474  0.2562601977459451  0.5004163102484185
  0.8795055721975018  0.7565625432386653  0.0003044721326759
  0.8790834274203618  0.7561333997287392  0.4997762404560788
  0.1209161376711094  0.3770498873532091  0.1206927120663508
  0.1204944362741998  0.3770570505520681  0.6207988248862080
  0.1204594678319566  0.8767200263972796  0.1208748133736179
  0.1203034154529021  0.8766791586941736  0.6198343255695349
  0.6212098707907785  0.3771999116946105  0.1205755901724643
  0.6213715608031620  0.3789667429877355  0.6243920046877847
  0.6206297616580230  0.8754578965585651  0.1205004920755783
  0.6204085856971204  0.8774121549162217  0.6207798951473578
  0.3696180395519519  0.1212928032582070  0.1140538046222588
  0.3771103059068679  0.1204699707898840  0.6206072265777252
  0.3768612078543114  0.6205123841842450  0.1210596937353117
  0.3764700506328822  0.6216321317587230  0.6205455463110994
  0.8772133006032021  0.1211177212534196  0.1210908452653712
  0.8766445278008845  0.1206104962280037  0.6205670394463496
  0.8770685033758028  0.6209329669224104  0.1208785470761100
  0.8763686133448800  0.6203387518453738  0.6203643824543192
  0.2561144162426245  0.3792139608913914  0.0001865269236418
  0.2554582240422150  0.3801613653057174  0.5002547565535949
  0.2568096089805607  0.8803657303024579  0.0012160186313253
  0.2560967226332380  0.8796467518290640  0.4998839074817454
  0.7564091498647727  0.3793562728179936  0.9996153430869654
  0.7549025840174508  0.3785294516223487  0.4990809935455829
  0.7561992461525051  0.8793098957440151  0.0000314777855550
  0.7559377794110134  0.8790183349168785  0.5000471820998982
  0.2560521577795924  0.0003806788155956  0.3792128417523841
  0.2538724387951987  0.9978085456624726  0.8754503538725658
  0.2558675842798266  0.5006797430909842  0.3791359435135817
  0.2558621722934831  0.4995542465958849  0.8793616145317742
  0.7570074191436973  0.9994143851689827  0.3791708617744121
  0.7557353268809166  0.0004050608326835  0.8798699161414234
  0.7572714070911246  0.5017495748376533  0.3795488221125609
  0.7564416101392268  0.5006249990729472  0.8797190377517694
  0.1236316249276541  0.2439701774107306  0.2439956975575797
  0.1229320612969360  0.2438651045575853  0.7438103360867174
  0.1233559318297992  0.7439657975238703  0.2439224127246575
  0.1227867022150306  0.7439047856403747  0.7438779730988117
  0.6303817047860036  0.2516745566883500  0.2444345672368229
  0.6228900603736420  0.2433601406257040  0.7434971333969784
  0.6231392481333415  0.7436514266554966  0.2441987716628731
  0.6235302697331093  0.7451622952961543  0.7440758803253544
  0.2427282956881740  0.2444783352344615  0.1222771652876062
  0.2435586382644033  0.2441841295788834  0.6232775228842016
  0.2429929045873322  0.7424071198218058  0.1221635585808087
  0.2442646235015431  0.7446700344842867  0.6241346550856761
  0.7461274463464491  0.2439358705942638  0.1215776250407998
  0.7439475222106324  0.2443282943884739  0.6231600960608858
  0.7441377251639238  0.7436921122915976  0.1234994125779281
  0.7441325233064120  0.7448122544230174  0.6232685937913729
  0.2450979483838367  0.1236274925070902  0.2441787157694364
  0.2435910281104654  0.1229475181908697  0.7432062181116663
  0.2440621764461497  0.6230806321036866  0.2441094247798006
  0.2438007395896875  0.6231108077860910  0.7438322128473374
  0.7431902216435446  0.1235559737174796  0.2444064450009975
  0.7439035846905924  0.1235501306126281  0.7437869854926902
  0.7438857547533928  0.6230997741776250  0.2440722652696650
  0.7445415549528036  0.6247030286448734  0.7447967462229883
  0.0002689485053082  0.0003991301120223  0.1143621123089389
  0.9999122876227418  0.9998671264797423  0.6140980661615600
  0.0000880098550198  0.4999541614040197  0.1141852179165852
  0.9997313028571426  0.5001298501487739  0.6140931948862729
  0.4999993419768956  0.9985126624742620  0.1078754334758969
  0.5000001537743515  0.0006733838331598  0.6146132460953595
  0.5000001377696677  0.4998509047339112  0.1143475464711869
  0.5000000637991491  0.5035000517829502  0.6170162190767243
  0.9996774791018836  0.1141784044413399  0.9999364962238033
  0.0000690878234835  0.1141194820110272  0.4999693940112948
  0.9999313545710535  0.6140507821934733  0.9999008542650927
  0.0003222104166341  0.6145008357369761  0.5002587750595069
  0.4999998987252923  0.1133161607228885  0.0021099100521624
  0.5000000086731475  0.1139813749762126  0.4983787367297836
  0.5000001060158823  0.6138672123500228  0.0001086123264500
  0.5000000541403367  0.6151502632886690  0.5003733773294812
  0.1133506350881817  0.0001501474279237  0.9995746461633885
  0.1140898111773296  0.0000407478874394  0.4998784346799354
  0.1140504130799300  0.4999225257715310  0.9997389296948285
  0.1144148336374258  0.5005152633060774  0.5003854943573955
  0.6126191447567209  0.9982398642811106  0.0020117096580279
  0.6135846491000692  0.9998462392042811  0.4999408030249768
  0.6141195105609043  0.4998198198869517  0.0002676353250664
  0.6140120240003526  0.5015306546111731  0.5022618170783772
  0.3859883394594235  0.3875187493896419  0.3882499615673538
  0.3858806827165111  0.3857003598648419  0.8861483127161307
  0.3864155508833917  0.8862618919399665  0.3863562672064518
  0.3873814013097174  0.8856214088695396  0.8893940173109769
  0.8866491172886555  0.3867990385505422  0.3862237787376870
  0.8859100257073820  0.3859509391154248  0.8857883964328011
  0.8859497163891703  0.8858721501301829  0.3856889775495986
  0.8855853385311789  0.8860990333237524  0.8859698570905863
 
  0.00000000E+00  0.00000000E+00  0.00000000E+00
  0.00000000E+00  0.00000000E+00  0.00000000E+00
  0.00000000E+00  0.00000000E+00  0.00000000E+00
  0.00000000E+00  0.00000000E+00  0.00000000E+00
  0.00000000E+00  0.00000000E+00  0.00000000E+00
  0.00000000E+00  0.00000000E+00  0.00000000E+00
  0.00000000E+00  0.00000000E+00  0.00000000E+00
  0.00000000E+00  0.00000000E+00  0.00000000E+00
  0.00000000E+00  0.00000000E+00  0.00000000E+00
  0.00000000E+00  0.00000000E+00  0.00000000E+00
  0.00000000E+00  0.00000000E+00  0.00000000E+00
  0.00000000E+00  0.00000000E+00  0.00000000E+00
  0.00000000E+00  0.00000000E+00  0.00000000E+00
  0.00000000E+00  0.00000000E+00  0.00000000E+00
  0.00000000E+00  0.00000000E+00  0.00000000E+00
  0.00000000E+00  0.00000000E+00  0.00000000E+00
  0.00000000E+00  0.00000000E+00  0.00000000E+00
  0.00000000E+00  0.00000000E+00  0.00000000E+00
  0.00000000E+00  0.00000000E+00  0.00000000E+00
  0.00000000E+00  0.00000000E+00  0.00000000E+00
  0.00000000E+00  0.00000000E+00  0.00000000E+00
  0.00000000E+00  0.00000000E+00  0.00000000E+00
  0.00000000E+00  0.00000000E+00  0.00000000E+00
  0.00000000E+00  0.00000000E+00  0.00000000E+00
  0.00000000E+00  0.00000000E+00  0.00000000E+00
  0.00000000E+00  0.00000000E+00  0.00000000E+00
  0.00000000E+00  0.00000000E+00  0.00000000E+00
  0.00000000E+00  0.00000000E+00  0.00000000E+00
  0.00000000E+00  0.00000000E+00  0.00000000E+00
  0.00000000E+00  0.00000000E+00  0.00000000E+00
  0.00000000E+00  0.00000000E+00  0.00000000E+00
  0.00000000E+00  0.00000000E+00  0.00000000E+00
  0.00000000E+00  0.00000000E+00  0.00000000E+00
  0.00000000E+00  0.00000000E+00  0.00000000E+00
  0.00000000E+00  0.00000000E+00  0.00000000E+00
  0.00000000E+00  0.00000000E+00  0.00000000E+00
  0.00000000E+00  0.00000000E+00  0.00000000E+00
  0.00000000E+00  0.00000000E+00  0.00000000E+00
  0.00000000E+00  0.00000000E+00  0.00000000E+00
  0.00000000E+00  0.00000000E+00  0.00000000E+00
  0.00000000E+00  0.00000000E+00  0.00000000E+00
  0.00000000E+00  0.00000000E+00  0.00000000E+00
  0.00000000E+00  0.00000000E+00  0.00000000E+00
  0.00000000E+00  0.00000000E+00  0.00000000E+00
  0.00000000E+00  0.00000000E+00  0.00000000E+00
  0.00000000E+00  0.00000000E+00  0.00000000E+00
  0.00000000E+00  0.00000000E+00  0.00000000E+00
  0.00000000E+00  0.00000000E+00  0.00000000E+00
  0.00000000E+00  0.00000000E+00  0.00000000E+00
  0.00000000E+00  0.00000000E+00  0.00000000E+00
  0.00000000E+00  0.00000000E+00  0.00000000E+00
  0.00000000E+00  0.00000000E+00  0.00000000E+00
  0.00000000E+00  0.00000000E+00  0.00000000E+00
  0.00000000E+00  0.00000000E+00  0.00000000E+00
  0.00000000E+00  0.00000000E+00  0.00000000E+00
  0.00000000E+00  0.00000000E+00  0.00000000E+00
  0.00000000E+00  0.00000000E+00  0.00000000E+00
  0.00000000E+00  0.00000000E+00  0.00000000E+00
  0.00000000E+00  0.00000000E+00  0.00000000E+00
  0.00000000E+00  0.00000000E+00  0.00000000E+00
  0.00000000E+00  0.00000000E+00  0.00000000E+00
  0.00000000E+00  0.00000000E+00  0.00000000E+00
  0.00000000E+00  0.00000000E+00  0.00000000E+00
  0.00000000E+00  0.00000000E+00  0.00000000E+00
  0.00000000E+00  0.00000000E+00  0.00000000E+00
  0.00000000E+00  0.00000000E+00  0.00000000E+00
  0.00000000E+00  0.00000000E+00  0.00000000E+00
  0.00000000E+00  0.00000000E+00  0.00000000E+00
  0.00000000E+00  0.00000000E+00  0.00000000E+00
  0.00000000E+00  0.00000000E+00  0.00000000E+00
  0.00000000E+00  0.00000000E+00  0.00000000E+00
  0.00000000E+00  0.00000000E+00  0.00000000E+00
  0.00000000E+00  0.00000000E+00  0.00000000E+00
  0.00000000E+00  0.00000000E+00  0.00000000E+00
  0.00000000E+00  0.00000000E+00  0.00000000E+00
  0.00000000E+00  0.00000000E+00  0.00000000E+00
  0.00000000E+00  0.00000000E+00  0.00000000E+00
  0.00000000E+00  0.00000000E+00  0.00000000E+00
  0.00000000E+00  0.00000000E+00  0.00000000E+00
  0.00000000E+00  0.00000000E+00  0.00000000E+00
  0.00000000E+00  0.00000000E+00  0.00000000E+00
  0.00000000E+00  0.00000000E+00  0.00000000E+00
  0.00000000E+00  0.00000000E+00  0.00000000E+00
  0.00000000E+00  0.00000000E+00  0.00000000E+00
  0.00000000E+00  0.00000000E+00  0.00000000E+00
  0.00000000E+00  0.00000000E+00  0.00000000E+00
  0.00000000E+00  0.00000000E+00  0.00000000E+00
  0.00000000E+00  0.00000000E+00  0.00000000E+00
  0.00000000E+00  0.00000000E+00  0.00000000E+00
  0.00000000E+00  0.00000000E+00  0.00000000E+00
  0.00000000E+00  0.00000000E+00  0.00000000E+00
  0.00000000E+00  0.00000000E+00  0.00000000E+00
  0.00000000E+00  0.00000000E+00  0.00000000E+00
  0.00000000E+00  0.00000000E+00  0.00000000E+00
  0.00000000E+00  0.00000000E+00  0.00000000E+00
  0.00000000E+00  0.00000000E+00  0.00000000E+00
  0.00000000E+00  0.00000000E+00  0.00000000E+00
  0.00000000E+00  0.00000000E+00  0.00000000E+00
  0.00000000E+00  0.00000000E+00  0.00000000E+00
  0.00000000E+00  0.00000000E+00  0.00000000E+00
  0.00000000E+00  0.00000000E+00  0.00000000E+00
  0.00000000E+00  0.00000000E+00  0.00000000E+00
  0.00000000E+00  0.00000000E+00  0.00000000E+00
  0.00000000E+00  0.00000000E+00  0.00000000E+00
  0.00000000E+00  0.00000000E+00  0.00000000E+00
  0.00000000E+00  0.00000000E+00  0.00000000E+00
  0.00000000E+00  0.00000000E+00  0.00000000E+00
  0.00000000E+00  0.00000000E+00  0.00000000E+00
  0.00000000E+00  0.00000000E+00  0.00000000E+00
  0.00000000E+00  0.00000000E+00  0.00000000E+00
  0.00000000E+00  0.00000000E+00  0.00000000E+00
  0.00000000E+00  0.00000000E+00  0.00000000E+00
  0.00000000E+00  0.00000000E+00  0.00000000E+00
  0.00000000E+00  0.00000000E+00  0.00000000E+00
  0.00000000E+00  0.00000000E+00  0.00000000E+00
  0.00000000E+00  0.00000000E+00  0.00000000E+00
  0.00000000E+00  0.00000000E+00  0.00000000E+00
  0.00000000E+00  0.00000000E+00  0.00000000E+00
  0.00000000E+00  0.00000000E+00  0.00000000E+00
  0.00000000E+00  0.00000000E+00  0.00000000E+00
  0.00000000E+00  0.00000000E+00  0.00000000E+00
  0.00000000E+00  0.00000000E+00  0.00000000E+00
  0.00000000E+00  0.00000000E+00  0.00000000E+00
  0.00000000E+00  0.00000000E+00  0.00000000E+00
  0.00000000E+00  0.00000000E+00  0.00000000E+00
  0.00000000E+00  0.00000000E+00  0.00000000E+00
  0.00000000E+00  0.00000000E+00  0.00000000E+00
  0.00000000E+00  0.00000000E+00  0.00000000E+00
  0.00000000E+00  0.00000000E+00  0.00000000E+00
  0.00000000E+00  0.00000000E+00  0.00000000E+00
  0.00000000E+00  0.00000000E+00  0.00000000E+00
  0.00000000E+00  0.00000000E+00  0.00000000E+00
  0.00000000E+00  0.00000000E+00  0.00000000E+00
  0.00000000E+00  0.00000000E+00  0.00000000E+00
  0.00000000E+00  0.00000000E+00  0.00000000E+00
  0.00000000E+00  0.00000000E+00  0.00000000E+00
  0.00000000E+00  0.00000000E+00  0.00000000E+00
  0.00000000E+00  0.00000000E+00  0.00000000E+00
  0.00000000E+00  0.00000000E+00  0.00000000E+00
  0.00000000E+00  0.00000000E+00  0.00000000E+00
  0.00000000E+00  0.00000000E+00  0.00000000E+00
  0.00000000E+00  0.00000000E+00  0.00000000E+00
  0.00000000E+00  0.00000000E+00  0.00000000E+00
  0.00000000E+00  0.00000000E+00  0.00000000E+00
  0.00000000E+00  0.00000000E+00  0.00000000E+00
  0.00000000E+00  0.00000000E+00  0.00000000E+00
  0.00000000E+00  0.00000000E+00  0.00000000E+00
  0.00000000E+00  0.00000000E+00  0.00000000E+00
  0.00000000E+00  0.00000000E+00  0.00000000E+00
  0.00000000E+00  0.00000000E+00  0.00000000E+00
  0.00000000E+00  0.00000000E+00  0.00000000E+00
  0.00000000E+00  0.00000000E+00  0.00000000E+00
  0.00000000E+00  0.00000000E+00  0.00000000E+00
  0.00000000E+00  0.00000000E+00  0.00000000E+00
  0.00000000E+00  0.00000000E+00  0.00000000E+00
  0.00000000E+00  0.00000000E+00  0.00000000E+00
  0.00000000E+00  0.00000000E+00  0.00000000E+00
  0.00000000E+00  0.00000000E+00  0.00000000E+00
  0.00000000E+00  0.00000000E+00  0.00000000E+00
  0.00000000E+00  0.00000000E+00  0.00000000E+00
  0.00000000E+00  0.00000000E+00  0.00000000E+00
  0.00000000E+00  0.00000000E+00  0.00000000E+00
  0.00000000E+00  0.00000000E+00  0.00000000E+00
  0.00000000E+00  0.00000000E+00  0.00000000E+00
  0.00000000E+00  0.00000000E+00  0.00000000E+00
  0.00000000E+00  0.00000000E+00  0.00000000E+00
  0.00000000E+00  0.00000000E+00  0.00000000E+00
  0.00000000E+00  0.00000000E+00  0.00000000E+00
  0.00000000E+00  0.00000000E+00  0.00000000E+00
  0.00000000E+00  0.00000000E+00  0.00000000E+00
  0.00000000E+00  0.00000000E+00  0.00000000E+00
  0.00000000E+00  0.00000000E+00  0.00000000E+00
  0.00000000E+00  0.00000000E+00  0.00000000E+00
  0.00000000E+00  0.00000000E+00  0.00000000E+00
  0.00000000E+00  0.00000000E+00  0.00000000E+00
  0.00000000E+00  0.00000000E+00  0.00000000E+00
  0.00000000E+00  0.00000000E+00  0.00000000E+00
  0.00000000E+00  0.00000000E+00  0.00000000E+00
  0.00000000E+00  0.00000000E+00  0.00000000E+00
  0.00000000E+00  0.00000000E+00  0.00000000E+00
  0.00000000E+00  0.00000000E+00  0.00000000E+00
  0.00000000E+00  0.00000000E+00  0.00000000E+00
  0.00000000E+00  0.00000000E+00  0.00000000E+00
  0.00000000E+00  0.00000000E+00  0.00000000E+00
  0.00000000E+00  0.00000000E+00  0.00000000E+00
  0.00000000E+00  0.00000000E+00  0.00000000E+00
  0.00000000E+00  0.00000000E+00  0.00000000E+00
  0.00000000E+00  0.00000000E+00  0.00000000E+00
  0.00000000E+00  0.00000000E+00  0.00000000E+00
  0.00000000E+00  0.00000000E+00  0.00000000E+00
  0.00000000E+00  0.00000000E+00  0.00000000E+00
  0.00000000E+00  0.00000000E+00  0.00000000E+00
  0.00000000E+00  0.00000000E+00  0.00000000E+00
  0.00000000E+00  0.00000000E+00  0.00000000E+00
  0.00000000E+00  0.00000000E+00  0.00000000E+00
  0.00000000E+00  0.00000000E+00  0.00000000E+00
  0.00000000E+00  0.00000000E+00  0.00000000E+00
  0.00000000E+00  0.00000000E+00  0.00000000E+00
  0.00000000E+00  0.00000000E+00  0.00000000E+00
  0.00000000E+00  0.00000000E+00  0.00000000E+00
  0.00000000E+00  0.00000000E+00  0.00000000E+00
  0.00000000E+00  0.00000000E+00  0.00000000E+00
  0.00000000E+00  0.00000000E+00  0.00000000E+00
  0.00000000E+00  0.00000000E+00  0.00000000E+00
  0.00000000E+00  0.00000000E+00  0.00000000E+00
  0.00000000E+00  0.00000000E+00  0.00000000E+00
  0.00000000E+00  0.00000000E+00  0.00000000E+00
  0.00000000E+00  0.00000000E+00  0.00000000E+00
  0.00000000E+00  0.00000000E+00  0.00000000E+00
  0.00000000E+00  0.00000000E+00  0.00000000E+00
  0.00000000E+00  0.00000000E+00  0.00000000E+00
  0.00000000E+00  0.00000000E+00  0.00000000E+00
  0.00000000E+00  0.00000000E+00  0.00000000E+00
  0.00000000E+00  0.00000000E+00  0.00000000E+00
  0.00000000E+00  0.00000000E+00  0.00000000E+00
  0.00000000E+00  0.00000000E+00  0.00000000E+00
  0.00000000E+00  0.00000000E+00  0.00000000E+00
  0.00000000E+00  0.00000000E+00  0.00000000E+00
  0.00000000E+00  0.00000000E+00  0.00000000E+00
  0.00000000E+00  0.00000000E+00  0.00000000E+00
  0.00000000E+00  0.00000000E+00  0.00000000E+00
  0.00000000E+00  0.00000000E+00  0.00000000E+00
  0.00000000E+00  0.00000000E+00  0.00000000E+00
  0.00000000E+00  0.00000000E+00  0.00000000E+00
  0.00000000E+00  0.00000000E+00  0.00000000E+00
  0.00000000E+00  0.00000000E+00  0.00000000E+00
  0.00000000E+00  0.00000000E+00  0.00000000E+00
  0.00000000E+00  0.00000000E+00  0.00000000E+00
  0.00000000E+00  0.00000000E+00  0.00000000E+00
  0.00000000E+00  0.00000000E+00  0.00000000E+00
  0.00000000E+00  0.00000000E+00  0.00000000E+00
  0.00000000E+00  0.00000000E+00  0.00000000E+00
  0.00000000E+00  0.00000000E+00  0.00000000E+00
  0.00000000E+00  0.00000000E+00  0.00000000E+00
  0.00000000E+00  0.00000000E+00  0.00000000E+00
  0.00000000E+00  0.00000000E+00  0.00000000E+00
  0.00000000E+00  0.00000000E+00  0.00000000E+00
  0.00000000E+00  0.00000000E+00  0.00000000E+00
  0.00000000E+00  0.00000000E+00  0.00000000E+00
  0.00000000E+00  0.00000000E+00  0.00000000E+00
  0.00000000E+00  0.00000000E+00  0.00000000E+00
  0.00000000E+00  0.00000000E+00  0.00000000E+00
  0.00000000E+00  0.00000000E+00  0.00000000E+00
  0.00000000E+00  0.00000000E+00  0.00000000E+00
  0.00000000E+00  0.00000000E+00  0.00000000E+00
  0.00000000E+00  0.00000000E+00  0.00000000E+00
  0.00000000E+00  0.00000000E+00  0.00000000E+00
  0.00000000E+00  0.00000000E+00  0.00000000E+00
  0.00000000E+00  0.00000000E+00  0.00000000E+00
  0.00000000E+00  0.00000000E+00  0.00000000E+00
  0.00000000E+00  0.00000000E+00  0.00000000E+00
  0.00000000E+00  0.00000000E+00  0.00000000E+00
  0.00000000E+00  0.00000000E+00  0.00000000E+00
  0.00000000E+00  0.00000000E+00  0.00000000E+00
  0.00000000E+00  0.00000000E+00  0.00000000E+00
