Li63 Nb64 O192                          
   1.00000000000000     
    15.1469600000000000   -0.0012470000000000   -0.0011610000000000
     1.0576070000000000   15.1097420000000007   -0.0009680000000000
     1.0576360000000000    0.9859670000000000   15.0777149999999995
   Li   Nb   O 
    63    64   192
Direct
  0.2500190000000018  0.2500179999999972  0.2500199999999992
  0.2500190000000018  0.2500179999999972  0.7500199999999992
  0.2500190000000018  0.7500179999999972  0.2500199999999992
  0.2500190000000018  0.7500179999999972  0.7500199999999992
  0.7500190000000018  0.2500179999999972  0.2500199999999992
  0.7500190000000018  0.2500179999999972  0.7500199999999992
  0.7500190000000018  0.7500179999999972  0.2500199999999992
  0.7500190000000018  0.7500179999999972  0.7500199999999992
  0.0000190000000018  0.2500179999999972  0.0000199999999992
  0.0000190000000018  0.2500179999999972  0.5000199999999992
  0.0000190000000018  0.7500179999999972  0.0000199999999992
  0.0000190000000018  0.7500179999999972  0.5000199999999992
  0.5000190000000018  0.2500179999999972  0.0000199999999992
  0.5000190000000018  0.7500179999999972  0.0000199999999992
  0.5000190000000018  0.7500179999999972  0.5000199999999992
  0.2500190000000018  0.0000179999999972  0.0000199999999992
  0.2500190000000018  0.0000179999999972  0.5000199999999992
  0.2500190000000018  0.5000179999999972  0.0000199999999992
  0.2500190000000018  0.5000179999999972  0.5000199999999992
  0.7500190000000018  0.0000179999999972  0.0000199999999992
  0.7500190000000018  0.0000179999999972  0.5000199999999992
  0.7500190000000018  0.5000179999999972  0.0000199999999992
  0.7500190000000018  0.5000179999999972  0.5000199999999992
  0.0000190000000018  0.0000179999999972  0.2500199999999992
  0.0000190000000018  0.0000179999999972  0.7500199999999992
  0.0000190000000018  0.5000179999999972  0.2500199999999992
  0.0000190000000018  0.5000179999999972  0.7500199999999992
  0.5000190000000018  0.0000179999999972  0.2500199999999992
  0.5000190000000018  0.0000179999999972  0.7500199999999992
  0.5000190000000018  0.5000179999999972  0.2500199999999992
  0.5000190000000018  0.5000179999999972  0.7500199999999992
  0.0000179999999972  0.0000190000000018  0.0000190000000018
  0.0000179999999972  0.0000190000000018  0.5000190000000018
  0.0000179999999972  0.5000190000000018  0.0000190000000018
  0.0000179999999972  0.5000190000000018  0.5000190000000018
  0.5000179999999972  0.0000190000000018  0.0000190000000018
  0.5000179999999972  0.0000190000000018  0.5000190000000018
  0.5000179999999972  0.5000190000000018  0.0000190000000018
  0.5000179999999972  0.5000190000000018  0.5000190000000018
  0.2500179999999972  0.0000190000000018  0.2500190000000018
  0.2500179999999972  0.0000190000000018  0.7500190000000018
  0.2500179999999972  0.5000190000000018  0.2500190000000018
  0.2500179999999972  0.5000190000000018  0.7500190000000018
  0.7500179999999972  0.0000190000000018  0.2500190000000018
  0.7500179999999972  0.0000190000000018  0.7500190000000018
  0.7500179999999972  0.5000190000000018  0.2500190000000018
  0.7500179999999972  0.5000190000000018  0.7500190000000018
  0.0000179999999972  0.2500190000000018  0.2500190000000018
  0.0000179999999972  0.2500190000000018  0.7500190000000018
  0.0000179999999972  0.7500190000000018  0.2500190000000018
  0.0000179999999972  0.7500190000000018  0.7500190000000018
  0.5000179999999972  0.2500190000000018  0.2500190000000018
  0.5000179999999972  0.2500190000000018  0.7500190000000018
  0.5000179999999972  0.7500190000000018  0.2500190000000018
  0.5000179999999972  0.7500190000000018  0.7500190000000018
  0.2500179999999972  0.2500190000000018  0.0000190000000018
  0.2500179999999972  0.2500190000000018  0.5000190000000018
  0.2500179999999972  0.7500190000000018  0.0000190000000018
  0.2500179999999972  0.7500190000000018  0.5000190000000018
  0.7500179999999972  0.2500190000000018  0.0000190000000018
  0.7500179999999972  0.2500190000000018  0.5000190000000018
  0.7500179999999972  0.7500190000000018  0.0000190000000018
  0.7500179999999972  0.7500190000000018  0.5000190000000018
  0.1087449999999990  0.1087500000000006  0.1087459999999965
  0.1087449999999990  0.1087500000000006  0.6087459999999965
  0.1087449999999990  0.6087500000000006  0.1087459999999965
  0.1087449999999990  0.6087500000000006  0.6087459999999965
  0.6087449999999990  0.1087509999999980  0.1087459999999965
  0.6087449999999990  0.1087500000000006  0.6087459999999965
  0.6087449999999990  0.6087500000000006  0.1087459999999965
  0.6087449999999990  0.6087500000000006  0.6087459999999965
  0.3587449999999990  0.1087500000000006  0.3587459999999965
  0.3587440000000015  0.1087500000000006  0.8587459999999965
  0.3587449999999990  0.6087500000000006  0.3587459999999965
  0.3587449999999990  0.6087500000000006  0.8587459999999965
  0.8587449999999990  0.1087500000000006  0.3587459999999965
  0.8587449999999990  0.1087500000000006  0.8587459999999965
  0.8587449999999990  0.6087500000000006  0.3587459999999965
  0.8587449999999990  0.6087500000000006  0.8587459999999965
  0.1087449999999990  0.3587500000000006  0.3587459999999965
  0.1087449999999990  0.3587500000000006  0.8587459999999965
  0.1087449999999990  0.8587500000000006  0.3587459999999965
  0.1087449999999990  0.8587500000000006  0.8587459999999965
  0.6087449999999990  0.3587500000000006  0.3587459999999965
  0.6087449999999990  0.3587500000000006  0.8587459999999965
  0.6087449999999990  0.8587500000000006  0.3587459999999965
  0.6087449999999990  0.8587500000000006  0.8587459999999965
  0.3587449999999990  0.3587500000000006  0.1087459999999965
  0.3587449999999990  0.3587500000000006  0.6087459999999965
  0.3587440000000015  0.8587500000000006  0.1087459999999965
  0.3587449999999990  0.8587500000000006  0.6087459999999965
  0.8587449999999990  0.3587500000000006  0.1087459999999965
  0.8587440000000015  0.3587500000000006  0.6087459999999965
  0.8587449999999990  0.8587500000000006  0.1087459999999965
  0.8587449999999990  0.8587500000000006  0.6087459999999965
  0.3587459999999965  0.3587479999999985  0.3587440000000015
  0.3587459999999965  0.3587490000000031  0.8587440000000015
  0.3587459999999965  0.8587479999999985  0.3587440000000015
  0.3587459999999965  0.8587490000000031  0.8587440000000015
  0.8587459999999965  0.3587479999999985  0.3587440000000015
  0.8587459999999965  0.3587479999999985  0.8587440000000015
  0.8587459999999965  0.8587479999999985  0.3587440000000015
  0.8587459999999965  0.8587479999999985  0.8587440000000015
  0.1087459999999965  0.3587479999999985  0.1087440000000015
  0.1087459999999965  0.3587490000000031  0.6087440000000015
  0.1087459999999965  0.8587490000000031  0.1087440000000015
  0.1087459999999965  0.8587490000000031  0.6087440000000015
  0.6087459999999965  0.3587490000000031  0.1087440000000015
  0.6087459999999965  0.3587490000000031  0.6087440000000015
  0.6087459999999965  0.8587490000000031  0.1087440000000015
  0.6087459999999965  0.8587490000000031  0.6087440000000015
  0.3587459999999965  0.1087490000000031  0.1087440000000015
  0.3587459999999965  0.1087490000000031  0.6087440000000015
  0.3587459999999965  0.6087490000000031  0.1087440000000015
  0.3587459999999965  0.6087490000000031  0.6087440000000015
  0.8587459999999965  0.1087490000000031  0.1087440000000015
  0.8587459999999965  0.1087490000000031  0.6087440000000015
  0.8587459999999965  0.6087490000000031  0.1087440000000015
  0.8587459999999965  0.6087490000000031  0.6087440000000015
  0.1087459999999965  0.1087490000000031  0.3587440000000015
  0.1087459999999965  0.1087490000000031  0.8587440000000015
  0.1087459999999965  0.6087490000000031  0.3587440000000015
  0.1087459999999965  0.6087479999999985  0.8587440000000015
  0.6087459999999965  0.1087490000000031  0.3587440000000015
  0.6087459999999965  0.1087490000000031  0.8587440000000015
  0.6087459999999965  0.6087490000000031  0.3587440000000015
  0.6087459999999965  0.6087490000000031  0.8587440000000015
  0.3144970000000029  0.2264910000000029  0.3795709999999985
  0.3144970000000029  0.2264910000000029  0.8795709999999985
  0.3144970000000029  0.7264910000000029  0.3795709999999985
  0.3144970000000029  0.7264910000000029  0.8795709999999985
  0.8144970000000029  0.2264910000000029  0.3795709999999985
  0.8144970000000029  0.2264910000000029  0.8795709999999985
  0.8144970000000029  0.7264910000000029  0.3795709999999985
  0.8144970000000029  0.7264910000000029  0.8795709999999985
  0.0644970000000029  0.2264910000000029  0.1295709999999985
  0.0644970000000029  0.2264910000000029  0.6295709999999985
  0.0644970000000029  0.7264910000000029  0.1295709999999985
  0.0644970000000029  0.7264910000000029  0.6295709999999985
  0.5644970000000029  0.2264910000000029  0.1295709999999985
  0.5644970000000029  0.2264910000000029  0.6295709999999985
  0.5644970000000029  0.7264910000000029  0.1295709999999985
  0.5644970000000029  0.7264910000000029  0.6295709999999985
  0.3144970000000029  0.4764910000000029  0.1295709999999985
  0.3144970000000029  0.4764910000000029  0.6295709999999985
  0.3144970000000029  0.9764910000000029  0.1295709999999985
  0.3144970000000029  0.9764910000000029  0.6295709999999985
  0.8144970000000029  0.4764910000000029  0.1295709999999985
  0.8144970000000029  0.4764910000000029  0.6295709999999985
  0.8144970000000029  0.9764910000000029  0.1295709999999985
  0.8144970000000029  0.9764910000000029  0.6295709999999985
  0.0644970000000029  0.4764910000000029  0.3795709999999985
  0.0644970000000029  0.4764910000000029  0.8795709999999985
  0.0644970000000029  0.9764910000000029  0.3795709999999985
  0.0644970000000029  0.9764910000000029  0.8795709999999985
  0.5644970000000029  0.4764910000000029  0.3795709999999985
  0.5644970000000029  0.4764910000000029  0.8795709999999985
  0.5644970000000029  0.9764910000000029  0.3795709999999985
  0.5644970000000029  0.9764910000000029  0.8795709999999985
  0.3795720000000031  0.3144950000000009  0.2264940000000024
  0.3795720000000031  0.3144950000000009  0.7264940000000024
  0.3795720000000031  0.8144950000000009  0.2264940000000024
  0.3795720000000031  0.8144950000000009  0.7264940000000024
  0.8795720000000031  0.3144950000000009  0.2264940000000024
  0.8795720000000031  0.3144950000000009  0.7264940000000024
  0.8795720000000031  0.8144950000000009  0.2264940000000024
  0.8795720000000031  0.8144950000000009  0.7264940000000024
  0.1295709999999985  0.3144950000000009  0.4764940000000024
  0.1295720000000031  0.3144950000000009  0.9764940000000024
  0.1295720000000031  0.8144950000000009  0.4764940000000024
  0.1295720000000031  0.8144950000000009  0.9764940000000024
  0.6295720000000031  0.3144950000000009  0.4764929999999978
  0.6295720000000031  0.3144950000000009  0.9764940000000024
  0.6295720000000031  0.8144950000000009  0.4764940000000024
  0.6295720000000031  0.8144950000000009  0.9764929999999978
  0.3795720000000031  0.0644950000000009  0.4764940000000024
  0.3795720000000031  0.0644950000000009  0.9764940000000024
  0.3795720000000031  0.5644950000000009  0.4764940000000024
  0.3795720000000031  0.5644950000000009  0.9764940000000024
  0.8795720000000031  0.0644950000000009  0.4764940000000024
  0.8795720000000031  0.0644950000000009  0.9764940000000024
  0.8795709999999985  0.5644950000000009  0.4764940000000024
  0.8795720000000031  0.5644950000000009  0.9764940000000024
  0.1295720000000031  0.0644950000000009  0.2264940000000024
  0.1295720000000031  0.0644950000000009  0.7264929999999978
  0.1295720000000031  0.5644950000000009  0.2264940000000024
  0.1295720000000031  0.5644950000000009  0.7264940000000024
  0.6295720000000031  0.0644950000000009  0.2264929999999978
  0.6295720000000031  0.0644950000000009  0.7264940000000024
  0.6295709999999985  0.5644950000000009  0.2264940000000024
  0.6295720000000031  0.5644950000000009  0.7264940000000024
  0.2264940000000024  0.3795709999999985  0.3144959999999983
  0.2264940000000024  0.3795709999999985  0.8144959999999983
  0.2264940000000024  0.8795709999999985  0.3144959999999983
  0.2264940000000024  0.8795709999999985  0.8144959999999983
  0.7264940000000024  0.3795709999999985  0.3144959999999983
  0.7264940000000024  0.3795709999999985  0.8144959999999983
  0.7264940000000024  0.8795709999999985  0.3144959999999983
  0.7264940000000024  0.8795709999999985  0.8144959999999983
  0.4764940000000024  0.3795709999999985  0.0644959999999983
  0.4764940000000024  0.3795709999999985  0.5644959999999983
  0.4764940000000024  0.8795709999999985  0.0644959999999983
  0.4764940000000024  0.8795709999999985  0.5644959999999983
  0.9764940000000024  0.3795709999999985  0.0644959999999983
  0.9764940000000024  0.3795709999999985  0.5644970000000029
  0.9764940000000024  0.8795709999999985  0.0644959999999983
  0.9764940000000024  0.8795709999999985  0.5644959999999983
  0.2264940000000024  0.1295709999999985  0.0644959999999983
  0.2264940000000024  0.1295709999999985  0.5644959999999983
  0.2264940000000024  0.6295709999999985  0.0644959999999983
  0.2264940000000024  0.6295709999999985  0.5644959999999983
  0.7264929999999978  0.1295709999999985  0.0644959999999983
  0.7264940000000024  0.1295709999999985  0.5644959999999983
  0.7264940000000024  0.6295709999999985  0.0644959999999983
  0.7264940000000024  0.6295709999999985  0.5644959999999983
  0.4764940000000024  0.1295709999999985  0.3144959999999983
  0.4764940000000024  0.1295709999999985  0.8144959999999983
  0.4764940000000024  0.6295709999999985  0.3144959999999983
  0.4764940000000024  0.6295709999999985  0.8144959999999983
  0.9764940000000024  0.1295709999999985  0.3144959999999983
  0.9764940000000024  0.1295709999999985  0.8144959999999983
  0.9764940000000024  0.6295709999999985  0.3144959999999983
  0.9764940000000024  0.6295709999999985  0.8144959999999983
  0.3144959999999983  0.1295709999999985  0.2264929999999978
  0.3144959999999983  0.1295709999999985  0.7264929999999978
  0.3144959999999983  0.6295709999999985  0.2264929999999978
  0.3144959999999983  0.6295709999999985  0.7264929999999978
  0.8144959999999983  0.1295709999999985  0.2264929999999978
  0.8144959999999983  0.1295709999999985  0.7264940000000024
  0.8144959999999983  0.6295709999999985  0.2264929999999978
  0.8144959999999983  0.6295709999999985  0.7264929999999978
  0.0644959999999983  0.1295709999999985  0.4764929999999978
  0.0644959999999983  0.1295709999999985  0.9764929999999978
  0.0644959999999983  0.6295709999999985  0.4764929999999978
  0.0644950000000009  0.6295709999999985  0.9764940000000024
  0.5644950000000009  0.1295709999999985  0.4764929999999978
  0.5644959999999983  0.1295709999999985  0.9764929999999978
  0.5644959999999983  0.6295709999999985  0.4764929999999978
  0.5644959999999983  0.6295709999999985  0.9764929999999978
  0.3144959999999983  0.3795709999999985  0.4764929999999978
  0.3144959999999983  0.3795709999999985  0.9764940000000024
  0.3144959999999983  0.8795709999999985  0.4764929999999978
  0.3144950000000009  0.8795709999999985  0.9764929999999978
  0.8144959999999983  0.3795709999999985  0.4764929999999978
  0.8144959999999983  0.3795709999999985  0.9764929999999978
  0.8144950000000009  0.8795709999999985  0.4764929999999978
  0.8144959999999983  0.8795709999999985  0.9764929999999978
  0.0644959999999983  0.3795709999999985  0.2264929999999978
  0.0644959999999983  0.3795709999999985  0.7264940000000024
  0.0644959999999983  0.8795709999999985  0.2264929999999978
  0.0644950000000009  0.8795709999999985  0.7264929999999978
  0.5644959999999983  0.3795709999999985  0.2264929999999978
  0.5644959999999983  0.3795709999999985  0.7264940000000024
  0.5644950000000009  0.8795709999999985  0.2264929999999978
  0.5644959999999983  0.8795709999999985  0.7264929999999978
  0.2264929999999978  0.3144950000000009  0.1295720000000031
  0.2264929999999978  0.3144950000000009  0.6295720000000031
  0.2264929999999978  0.8144950000000009  0.1295720000000031
  0.2264929999999978  0.8144950000000009  0.6295720000000031
  0.7264940000000024  0.3144950000000009  0.1295720000000031
  0.7264929999999978  0.3144950000000009  0.6295720000000031
  0.7264929999999978  0.8144950000000009  0.1295720000000031
  0.7264929999999978  0.8144959999999983  0.6295720000000031
  0.4764929999999978  0.3144950000000009  0.3795720000000031
  0.4764929999999978  0.3144950000000009  0.8795720000000031
  0.4764929999999978  0.8144950000000009  0.3795720000000031
  0.4764929999999978  0.8144950000000009  0.8795720000000031
  0.9764929999999978  0.3144950000000009  0.3795720000000031
  0.9764929999999978  0.3144950000000009  0.8795720000000031
  0.9764929999999978  0.8144950000000009  0.3795720000000031
  0.9764929999999978  0.8144950000000009  0.8795720000000031
  0.2264929999999978  0.0644950000000009  0.3795720000000031
  0.2264929999999978  0.0644950000000009  0.8795720000000031
  0.2264929999999978  0.5644950000000009  0.3795720000000031
  0.2264940000000024  0.5644950000000009  0.8795720000000031
  0.7264929999999978  0.0644950000000009  0.3795720000000031
  0.7264929999999978  0.0644950000000009  0.8795720000000031
  0.7264929999999978  0.5644950000000009  0.3795720000000031
  0.7264929999999978  0.5644950000000009  0.8795720000000031
  0.4764929999999978  0.0644950000000009  0.1295720000000031
  0.4764929999999978  0.0644950000000009  0.6295720000000031
  0.4764929999999978  0.5644950000000009  0.1295720000000031
  0.4764929999999978  0.5644950000000009  0.6295720000000031
  0.9764929999999978  0.0644950000000009  0.1295720000000031
  0.9764929999999978  0.0644950000000009  0.6295720000000031
  0.9764929999999978  0.5644950000000009  0.1295720000000031
  0.9764929999999978  0.5644950000000009  0.6295720000000031
  0.1295709999999985  0.2264899999999983  0.3144959999999983
  0.1295720000000031  0.2264899999999983  0.8144959999999983
  0.1295709999999985  0.7264899999999983  0.3144959999999983
  0.1295720000000031  0.7264899999999983  0.8144959999999983
  0.6295709999999985  0.2264899999999983  0.3144959999999983
  0.6295720000000031  0.2264899999999983  0.8144959999999983
  0.6295720000000031  0.7264899999999983  0.3144959999999983
  0.6295709999999985  0.7264899999999983  0.8144959999999983
  0.3795720000000031  0.2264899999999983  0.0644959999999983
  0.3795709999999985  0.2264899999999983  0.5644959999999983
  0.3795709999999985  0.7264899999999983  0.0644959999999983
  0.3795709999999985  0.7264899999999983  0.5644959999999983
  0.8795709999999985  0.2264899999999983  0.0644959999999983
  0.8795709999999985  0.2264899999999983  0.5644959999999983
  0.8795709999999985  0.7264899999999983  0.0644959999999983
  0.8795709999999985  0.7264899999999983  0.5644959999999983
  0.1295720000000031  0.4764899999999983  0.0644959999999983
  0.1295720000000031  0.4764899999999983  0.5644959999999983
  0.1295720000000031  0.9764899999999983  0.0644959999999983
  0.1295709999999985  0.9764899999999983  0.5644959999999983
  0.6295709999999985  0.4764899999999983  0.0644959999999983
  0.6295720000000031  0.4764899999999983  0.5644959999999983
  0.6295720000000031  0.9764899999999983  0.0644959999999983
  0.6295709999999985  0.9764899999999983  0.5644959999999983
  0.3795709999999985  0.4764899999999983  0.3144959999999983
  0.3795720000000031  0.4764899999999983  0.8144959999999983
  0.3795709999999985  0.9764899999999983  0.3144959999999983
  0.3795709999999985  0.9764899999999983  0.8144959999999983
  0.8795709999999985  0.4764899999999983  0.3144959999999983
  0.8795709999999985  0.4764899999999983  0.8144959999999983
  0.8795720000000031  0.9764899999999983  0.3144959999999983
  0.8795709999999985  0.9764899999999983  0.8144959999999983
 
  0.00000000E+00  0.00000000E+00  0.00000000E+00
  0.00000000E+00  0.00000000E+00  0.00000000E+00
  0.00000000E+00  0.00000000E+00  0.00000000E+00
  0.00000000E+00  0.00000000E+00  0.00000000E+00
  0.00000000E+00  0.00000000E+00  0.00000000E+00
  0.00000000E+00  0.00000000E+00  0.00000000E+00
  0.00000000E+00  0.00000000E+00  0.00000000E+00
  0.00000000E+00  0.00000000E+00  0.00000000E+00
  0.00000000E+00  0.00000000E+00  0.00000000E+00
  0.00000000E+00  0.00000000E+00  0.00000000E+00
  0.00000000E+00  0.00000000E+00  0.00000000E+00
  0.00000000E+00  0.00000000E+00  0.00000000E+00
  0.00000000E+00  0.00000000E+00  0.00000000E+00
  0.00000000E+00  0.00000000E+00  0.00000000E+00
  0.00000000E+00  0.00000000E+00  0.00000000E+00
  0.00000000E+00  0.00000000E+00  0.00000000E+00
  0.00000000E+00  0.00000000E+00  0.00000000E+00
  0.00000000E+00  0.00000000E+00  0.00000000E+00
  0.00000000E+00  0.00000000E+00  0.00000000E+00
  0.00000000E+00  0.00000000E+00  0.00000000E+00
  0.00000000E+00  0.00000000E+00  0.00000000E+00
  0.00000000E+00  0.00000000E+00  0.00000000E+00
  0.00000000E+00  0.00000000E+00  0.00000000E+00
  0.00000000E+00  0.00000000E+00  0.00000000E+00
  0.00000000E+00  0.00000000E+00  0.00000000E+00
  0.00000000E+00  0.00000000E+00  0.00000000E+00
  0.00000000E+00  0.00000000E+00  0.00000000E+00
  0.00000000E+00  0.00000000E+00  0.00000000E+00
  0.00000000E+00  0.00000000E+00  0.00000000E+00
  0.00000000E+00  0.00000000E+00  0.00000000E+00
  0.00000000E+00  0.00000000E+00  0.00000000E+00
  0.00000000E+00  0.00000000E+00  0.00000000E+00
  0.00000000E+00  0.00000000E+00  0.00000000E+00
  0.00000000E+00  0.00000000E+00  0.00000000E+00
  0.00000000E+00  0.00000000E+00  0.00000000E+00
  0.00000000E+00  0.00000000E+00  0.00000000E+00
  0.00000000E+00  0.00000000E+00  0.00000000E+00
  0.00000000E+00  0.00000000E+00  0.00000000E+00
  0.00000000E+00  0.00000000E+00  0.00000000E+00
  0.00000000E+00  0.00000000E+00  0.00000000E+00
  0.00000000E+00  0.00000000E+00  0.00000000E+00
  0.00000000E+00  0.00000000E+00  0.00000000E+00
  0.00000000E+00  0.00000000E+00  0.00000000E+00
  0.00000000E+00  0.00000000E+00  0.00000000E+00
  0.00000000E+00  0.00000000E+00  0.00000000E+00
  0.00000000E+00  0.00000000E+00  0.00000000E+00
  0.00000000E+00  0.00000000E+00  0.00000000E+00
  0.00000000E+00  0.00000000E+00  0.00000000E+00
  0.00000000E+00  0.00000000E+00  0.00000000E+00
  0.00000000E+00  0.00000000E+00  0.00000000E+00
  0.00000000E+00  0.00000000E+00  0.00000000E+00
  0.00000000E+00  0.00000000E+00  0.00000000E+00
  0.00000000E+00  0.00000000E+00  0.00000000E+00
  0.00000000E+00  0.00000000E+00  0.00000000E+00
  0.00000000E+00  0.00000000E+00  0.00000000E+00
  0.00000000E+00  0.00000000E+00  0.00000000E+00
  0.00000000E+00  0.00000000E+00  0.00000000E+00
  0.00000000E+00  0.00000000E+00  0.00000000E+00
  0.00000000E+00  0.00000000E+00  0.00000000E+00
  0.00000000E+00  0.00000000E+00  0.00000000E+00
  0.00000000E+00  0.00000000E+00  0.00000000E+00
  0.00000000E+00  0.00000000E+00  0.00000000E+00
  0.00000000E+00  0.00000000E+00  0.00000000E+00
  0.00000000E+00  0.00000000E+00  0.00000000E+00
  0.00000000E+00  0.00000000E+00  0.00000000E+00
  0.00000000E+00  0.00000000E+00  0.00000000E+00
  0.00000000E+00  0.00000000E+00  0.00000000E+00
  0.00000000E+00  0.00000000E+00  0.00000000E+00
  0.00000000E+00  0.00000000E+00  0.00000000E+00
  0.00000000E+00  0.00000000E+00  0.00000000E+00
  0.00000000E+00  0.00000000E+00  0.00000000E+00
  0.00000000E+00  0.00000000E+00  0.00000000E+00
  0.00000000E+00  0.00000000E+00  0.00000000E+00
  0.00000000E+00  0.00000000E+00  0.00000000E+00
  0.00000000E+00  0.00000000E+00  0.00000000E+00
  0.00000000E+00  0.00000000E+00  0.00000000E+00
  0.00000000E+00  0.00000000E+00  0.00000000E+00
  0.00000000E+00  0.00000000E+00  0.00000000E+00
  0.00000000E+00  0.00000000E+00  0.00000000E+00
  0.00000000E+00  0.00000000E+00  0.00000000E+00
  0.00000000E+00  0.00000000E+00  0.00000000E+00
  0.00000000E+00  0.00000000E+00  0.00000000E+00
  0.00000000E+00  0.00000000E+00  0.00000000E+00
  0.00000000E+00  0.00000000E+00  0.00000000E+00
  0.00000000E+00  0.00000000E+00  0.00000000E+00
  0.00000000E+00  0.00000000E+00  0.00000000E+00
  0.00000000E+00  0.00000000E+00  0.00000000E+00
  0.00000000E+00  0.00000000E+00  0.00000000E+00
  0.00000000E+00  0.00000000E+00  0.00000000E+00
  0.00000000E+00  0.00000000E+00  0.00000000E+00
  0.00000000E+00  0.00000000E+00  0.00000000E+00
  0.00000000E+00  0.00000000E+00  0.00000000E+00
  0.00000000E+00  0.00000000E+00  0.00000000E+00
  0.00000000E+00  0.00000000E+00  0.00000000E+00
  0.00000000E+00  0.00000000E+00  0.00000000E+00
  0.00000000E+00  0.00000000E+00  0.00000000E+00
  0.00000000E+00  0.00000000E+00  0.00000000E+00
  0.00000000E+00  0.00000000E+00  0.00000000E+00
  0.00000000E+00  0.00000000E+00  0.00000000E+00
  0.00000000E+00  0.00000000E+00  0.00000000E+00
  0.00000000E+00  0.00000000E+00  0.00000000E+00
  0.00000000E+00  0.00000000E+00  0.00000000E+00
  0.00000000E+00  0.00000000E+00  0.00000000E+00
  0.00000000E+00  0.00000000E+00  0.00000000E+00
  0.00000000E+00  0.00000000E+00  0.00000000E+00
  0.00000000E+00  0.00000000E+00  0.00000000E+00
  0.00000000E+00  0.00000000E+00  0.00000000E+00
  0.00000000E+00  0.00000000E+00  0.00000000E+00
  0.00000000E+00  0.00000000E+00  0.00000000E+00
  0.00000000E+00  0.00000000E+00  0.00000000E+00
  0.00000000E+00  0.00000000E+00  0.00000000E+00
  0.00000000E+00  0.00000000E+00  0.00000000E+00
  0.00000000E+00  0.00000000E+00  0.00000000E+00
  0.00000000E+00  0.00000000E+00  0.00000000E+00
  0.00000000E+00  0.00000000E+00  0.00000000E+00
  0.00000000E+00  0.00000000E+00  0.00000000E+00
  0.00000000E+00  0.00000000E+00  0.00000000E+00
  0.00000000E+00  0.00000000E+00  0.00000000E+00
  0.00000000E+00  0.00000000E+00  0.00000000E+00
  0.00000000E+00  0.00000000E+00  0.00000000E+00
  0.00000000E+00  0.00000000E+00  0.00000000E+00
  0.00000000E+00  0.00000000E+00  0.00000000E+00
  0.00000000E+00  0.00000000E+00  0.00000000E+00
  0.00000000E+00  0.00000000E+00  0.00000000E+00
  0.00000000E+00  0.00000000E+00  0.00000000E+00
  0.00000000E+00  0.00000000E+00  0.00000000E+00
  0.00000000E+00  0.00000000E+00  0.00000000E+00
  0.00000000E+00  0.00000000E+00  0.00000000E+00
  0.00000000E+00  0.00000000E+00  0.00000000E+00
  0.00000000E+00  0.00000000E+00  0.00000000E+00
  0.00000000E+00  0.00000000E+00  0.00000000E+00
  0.00000000E+00  0.00000000E+00  0.00000000E+00
  0.00000000E+00  0.00000000E+00  0.00000000E+00
  0.00000000E+00  0.00000000E+00  0.00000000E+00
  0.00000000E+00  0.00000000E+00  0.00000000E+00
  0.00000000E+00  0.00000000E+00  0.00000000E+00
  0.00000000E+00  0.00000000E+00  0.00000000E+00
  0.00000000E+00  0.00000000E+00  0.00000000E+00
  0.00000000E+00  0.00000000E+00  0.00000000E+00
  0.00000000E+00  0.00000000E+00  0.00000000E+00
  0.00000000E+00  0.00000000E+00  0.00000000E+00
  0.00000000E+00  0.00000000E+00  0.00000000E+00
  0.00000000E+00  0.00000000E+00  0.00000000E+00
  0.00000000E+00  0.00000000E+00  0.00000000E+00
  0.00000000E+00  0.00000000E+00  0.00000000E+00
  0.00000000E+00  0.00000000E+00  0.00000000E+00
  0.00000000E+00  0.00000000E+00  0.00000000E+00
  0.00000000E+00  0.00000000E+00  0.00000000E+00
  0.00000000E+00  0.00000000E+00  0.00000000E+00
  0.00000000E+00  0.00000000E+00  0.00000000E+00
  0.00000000E+00  0.00000000E+00  0.00000000E+00
  0.00000000E+00  0.00000000E+00  0.00000000E+00
  0.00000000E+00  0.00000000E+00  0.00000000E+00
  0.00000000E+00  0.00000000E+00  0.00000000E+00
  0.00000000E+00  0.00000000E+00  0.00000000E+00
  0.00000000E+00  0.00000000E+00  0.00000000E+00
  0.00000000E+00  0.00000000E+00  0.00000000E+00
  0.00000000E+00  0.00000000E+00  0.00000000E+00
  0.00000000E+00  0.00000000E+00  0.00000000E+00
  0.00000000E+00  0.00000000E+00  0.00000000E+00
  0.00000000E+00  0.00000000E+00  0.00000000E+00
  0.00000000E+00  0.00000000E+00  0.00000000E+00
  0.00000000E+00  0.00000000E+00  0.00000000E+00
  0.00000000E+00  0.00000000E+00  0.00000000E+00
  0.00000000E+00  0.00000000E+00  0.00000000E+00
  0.00000000E+00  0.00000000E+00  0.00000000E+00
  0.00000000E+00  0.00000000E+00  0.00000000E+00
  0.00000000E+00  0.00000000E+00  0.00000000E+00
  0.00000000E+00  0.00000000E+00  0.00000000E+00
  0.00000000E+00  0.00000000E+00  0.00000000E+00
  0.00000000E+00  0.00000000E+00  0.00000000E+00
  0.00000000E+00  0.00000000E+00  0.00000000E+00
  0.00000000E+00  0.00000000E+00  0.00000000E+00
  0.00000000E+00  0.00000000E+00  0.00000000E+00
  0.00000000E+00  0.00000000E+00  0.00000000E+00
  0.00000000E+00  0.00000000E+00  0.00000000E+00
  0.00000000E+00  0.00000000E+00  0.00000000E+00
  0.00000000E+00  0.00000000E+00  0.00000000E+00
  0.00000000E+00  0.00000000E+00  0.00000000E+00
  0.00000000E+00  0.00000000E+00  0.00000000E+00
  0.00000000E+00  0.00000000E+00  0.00000000E+00
  0.00000000E+00  0.00000000E+00  0.00000000E+00
  0.00000000E+00  0.00000000E+00  0.00000000E+00
  0.00000000E+00  0.00000000E+00  0.00000000E+00
  0.00000000E+00  0.00000000E+00  0.00000000E+00
  0.00000000E+00  0.00000000E+00  0.00000000E+00
  0.00000000E+00  0.00000000E+00  0.00000000E+00
  0.00000000E+00  0.00000000E+00  0.00000000E+00
  0.00000000E+00  0.00000000E+00  0.00000000E+00
  0.00000000E+00  0.00000000E+00  0.00000000E+00
  0.00000000E+00  0.00000000E+00  0.00000000E+00
  0.00000000E+00  0.00000000E+00  0.00000000E+00
  0.00000000E+00  0.00000000E+00  0.00000000E+00
  0.00000000E+00  0.00000000E+00  0.00000000E+00
  0.00000000E+00  0.00000000E+00  0.00000000E+00
  0.00000000E+00  0.00000000E+00  0.00000000E+00
  0.00000000E+00  0.00000000E+00  0.00000000E+00
  0.00000000E+00  0.00000000E+00  0.00000000E+00
  0.00000000E+00  0.00000000E+00  0.00000000E+00
  0.00000000E+00  0.00000000E+00  0.00000000E+00
  0.00000000E+00  0.00000000E+00  0.00000000E+00
  0.00000000E+00  0.00000000E+00  0.00000000E+00
  0.00000000E+00  0.00000000E+00  0.00000000E+00
  0.00000000E+00  0.00000000E+00  0.00000000E+00
  0.00000000E+00  0.00000000E+00  0.00000000E+00
  0.00000000E+00  0.00000000E+00  0.00000000E+00
  0.00000000E+00  0.00000000E+00  0.00000000E+00
  0.00000000E+00  0.00000000E+00  0.00000000E+00