Li63 Ta65 O192                          
   1.00000000000000     
    15.0337320000000005   -0.0060940000000000   -0.0057460000000000
     0.9606630000000000   15.0030490000000007   -0.0057500000000000
     0.9606080000000000    0.9007180000000000   14.9759290000000007
   Li   Ta   O 
    63    65   192
Direct
  0.3886280155461890  0.3903060102271283  0.8891759064285978
  0.3903046208871714  0.8891753251727224  0.3886283444563716
  0.3898952881743725  0.8902092157794144  0.8899212755454329
  0.8891760941928837  0.3886290760235909  0.3903054401879160
  0.8899206112456497  0.3898953212295098  0.8902097093868520
  0.8902095704015380  0.8899216518983479  0.3898951963314943
  0.8898479757951492  0.8898481730058663  0.8898478194573869
  0.1372968087884843  0.3873727891241217  0.1377489911850205
  0.1393248564220286  0.3892105720011756  0.6404503905663859
  0.1397438319229849  0.8897469851932129  0.1396086663635856
  0.1393861845165389  0.8898031748891810  0.6402623822394915
  0.6404543895427253  0.3899348688716557  0.1399991064975552
  0.6410893147123460  0.3895428673530290  0.6427168640194481
  0.6401040679242627  0.8899048925711099  0.1397400399799338
  0.6398862068712532  0.8901273638047158  0.6400148813336912
  0.3873722666326813  0.1377491288973403  0.1372968838408610
  0.3899344948848906  0.1399996937222241  0.6404546232805046
  0.3892103997512777  0.6404510032653477  0.1393258120098864
  0.3895434650616707  0.6427172794106752  0.6410888390091500
  0.8897467772408305  0.1396095359585843  0.1397437973121995
  0.8899041619574888  0.1397399698443351  0.6401039831668669
  0.8898034768063212  0.6402628952825538  0.1393861867891175
  0.8901279574204111  0.6400148671643819  0.6398858539972139
  0.1377485069507784  0.1372965354465308  0.3873721688238163
  0.1396088486565290  0.1397436692889258  0.8897468423735688
  0.1399991097075031  0.6404540805018186  0.3899350958372949
  0.1397402595504076  0.6401042611990704  0.8899041027241310
  0.6404509906016287  0.1393252673086280  0.3892105240308794
  0.6402624033241011  0.1393858295516210  0.8898034175917218
  0.6427175054907366  0.6410889808223743  0.3895432134928498
  0.6400148153934211  0.6398864328669447  0.8901268907304782
  0.1394991368378840  0.1394995715593481  0.1394994856784777
  0.1379190180021368  0.1380390737888106  0.6417247601824769
  0.1380395551979916  0.6417255334730996  0.1379193614451282
  0.1398789895076362  0.6395182313759520  0.6395705903249365
  0.6417247622715010  0.1379195554108961  0.1380391566904322
  0.6395708630837049  0.1398792681514962  0.6395189138295336
  0.6395192593668071  0.6395715273972229  0.1398792223534002
  0.6407291184614863  0.6407294121728526  0.6407292826299340
  0.3880591077345983  0.1380307290441962  0.3870426893672416
  0.3891792295743528  0.1388830334599191  0.8891633374853356
  0.3902054281698710  0.6441571742286527  0.3895023260076584
  0.3898303371119738  0.6400887146801608  0.8908878283229882
  0.8894018060135309  0.1399364327010559  0.3896255368768990
  0.8900002294874270  0.1397521257881635  0.8899035051328568
  0.8898720050292468  0.6412322861841417  0.3901143812934222
  0.8899622073403748  0.6399744629950277  0.8897568315519493
  0.1380304134763222  0.3870420746626095  0.3880592627892696
  0.1399368590287509  0.3896268342404525  0.8894020398236151
  0.1388833719862106  0.8891625650319810  0.3891801337848051
  0.1397511088754371  0.8899040023148217  0.8900004116530411
  0.6441571843399032  0.3895034072252344  0.3902052428668981
  0.6412320276786971  0.3901148053915193  0.8898722929912211
  0.6400880069251897  0.8908882762930475  0.3898303494031410
  0.6399743672037275  0.8897569841070236  0.8899615619287076
  0.3870425018582537  0.3880597801624361  0.1380311940474854
  0.3895032112422641  0.3902047553462893  0.6441568482038775
  0.3896261671305012  0.8894023586330277  0.1399368910334786
  0.3901145358456901  0.8898718919154760  0.6412319103375523
  0.8891630292609989  0.3891804783905997  0.1388826133965395
  0.8908878955530710  0.3898297828753954  0.6400885328503421
  0.8899041363613449  0.8900010169662593  0.1397510972355889
  0.8897565942560206  0.8899619617450369  0.6399742160969666
  0.3978369229219751  0.3978381221417990  0.3978374066338048
  0.2474950944884782  0.2474952914559765  0.2474953375267361
  0.2480278044503024  0.2478652935451535  0.7480791330170860
  0.2478652886323616  0.7480801811539166  0.2480281230090782
  0.2480288393856895  0.7481456152427057  0.7484483862597173
  0.7480792939831815  0.2480280187998147  0.2478648489395283
  0.7484483802085293  0.2480290843999100  0.7481455026124095
  0.7481457630967654  0.7484498128732540  0.2480289441102244
  0.7484098357911648  0.7484097412959656  0.7484091141821736
  0.4975356849025019  0.2463980827177679  0.4964234258666309
  0.4975403234620615  0.2489262784237596  0.9941722779285769
  0.4988827512510170  0.7499108115585074  0.4986598502916522
  0.4980510831676952  0.7481334653845408  0.9984726159860742
  0.9975305152664475  0.2478465641017067  0.4982050921053087
  0.9981097827010430  0.2480567288870787  0.9979344024262176
  0.9984644229668902  0.7483439852279403  0.4982005988115432
  0.9979033755735003  0.7483869720738028  0.9978897488858394
  0.2464000736847609  0.4964222423801914  0.4975343577768925
  0.2478464847122339  0.4982060267192807  0.9975307456900708
  0.2489265118812227  0.9941711976871872  0.4975410139344234
  0.2480566010405170  0.9979353027137705  0.9981104674843451
  0.7499100815017883  0.4986600206785425  0.4988829621994597
  0.7483425629943810  0.4982016491757122  0.9984648288612732
  0.7481325773205114  0.9984726208654209  0.4980512297109669
  0.7483864090320864  0.9978904672656981  0.9979027902296451
  0.4964238444469018  0.4975357508266498  0.2463987880085696
  0.4986615716990457  0.4988839137257486  0.7499094752769793
  0.4982048322287085  0.9975308596140096  0.2478466385441394
  0.4982010788200100  0.9984650427392978  0.7483430447141970
  0.9941717398766770  0.4975414067800799  0.2489259980204466
  0.9984729534949537  0.4980513108909008  0.7481328503086218
  0.9979346679182939  0.9981103976089898  0.2480568819023432
  0.9978897238310154  0.9979029344527461  0.7483862819613591
  0.5031752947941470  0.5031761262689471  0.5031750542652418
  0.4984579571800793  0.4979797705540108  0.9983955899258987
  0.4979791335459396  0.9983952425904974  0.4984589449766901
  0.4983245447593987  0.9980123695264282  0.9980406116928080
  0.9983961087308728  0.4984588249218618  0.4979784179918738
  0.9980405167010815  0.4983246542570399  0.9980121633274024
  0.9980122849285067  0.9980412076545733  0.4983243274465678
  0.9981272026369723  0.9981275837538846  0.9981267339287427
  0.2406437651667090  0.4996214630834075  0.2453655353517092
  0.2481281857442639  0.4984565938411620  0.7474648801393684
  0.2479734075680611  0.9976951269266294  0.2478919720273680
  0.2480031448763071  0.9981372151068086  0.7482163468071121
  0.7462845250416805  0.4987105874073521  0.2481429298185276
  0.7488436910411167  0.4983566542904114  0.7485466496180422
  0.7482100655034571  0.9978636673920676  0.2480938959413095
  0.7480591919976334  0.9982728934326985  0.7481444744931807
  0.4996210672460819  0.2453659004442486  0.2406442877410839
  0.4987099908165362  0.2481438769394941  0.7462845217380050
  0.4984566063173119  0.7474661536335176  0.2481279726352739
  0.4983572709597581  0.7485478933663572  0.7488434174900434
  0.9976945576767164  0.2478920768294230  0.2479727002772023
  0.9978626220980118  0.2480935275723652  0.7482117414903158
  0.9981372149119849  0.7482168961151316  0.2480031033802348
  0.9982739862326113  0.7481452816548213  0.7480592107800064
  0.2453652844232010  0.2406429700777650  0.4996213489630392
  0.2478916311546016  0.2479736262288910  0.9976940693167862
  0.2481432028886630  0.7462839884314505  0.4987101635124702
  0.2480937712417202  0.7482110562904367  0.9978631393870430
  0.7474653346637865  0.2481272626220061  0.4984569202517690
  0.7482163019888688  0.2480033996647961  0.9981370358527784
  0.7485462264523761  0.7488449284620344  0.4983570744391415
  0.7481444154297208  0.7480603328132034  0.9982732271806469
  0.2068148342112934  0.3677289865379123  0.2700334902559263
  0.2085495850436700  0.3686247945974088  0.7695187941507555
  0.2078789525291143  0.8681752355694314  0.2704300301218794
  0.2084225356372116  0.8684656043236814  0.7708065241103199
  0.7081315763455933  0.3681964782452241  0.2704528916453697
  0.7085147235627502  0.3687117772619075  0.7701190700356193
  0.7077390887575277  0.8685958083844056  0.2706237780312293
  0.7082560878675963  0.8687953095547840  0.7706265512733452
  0.4580461843758883  0.3683236449921807  0.0211328413234142
  0.4532320698494843  0.3723450975964724  0.5249145507125945
  0.4583873191644301  0.8683321869248886  0.0213326521621582
  0.4578774853474812  0.8695595810161123  0.5214358798526675
  0.9582509316237022  0.3685135709674299  0.0202484743574942
  0.9586948605199694  0.3686644340586511  0.5201865678600939
  0.9579628539881639  0.8685987707355451  0.0206252645710592
  0.9581704028294880  0.8686260629638127  0.5205996574546319
  0.2082409522651574  0.1183197947877517  0.0204104695679916
  0.2070274243642984  0.1166658687793216  0.5212526018037167
  0.2078602945109367  0.6183549456277717  0.0202626852448589
  0.2093785191386743  0.6187712574113036  0.5200197691007986
  0.7082113512882842  0.1185017654873590  0.0199705734925573
  0.7071271350541792  0.1192334196903531  0.5199989525824051
  0.7082274678506195  0.6184538357254183  0.0210095812650053
  0.7091968942175768  0.6189288716316739  0.5208812925374531
  0.4578986118125812  0.1182172654757920  0.2702278573907790
  0.4581475286075616  0.1189444105956312  0.7708176873155921
  0.4577130448713049  0.6165579437317419  0.2730509804346184
  0.4587281685752984  0.6190292874593766  0.7726480268398390
  0.9576216381162865  0.1184364152281105  0.2704786032965742
  0.9582259694546238  0.1184545543420654  0.7706142110247498
  0.9575542758693842  0.6184142132131001  0.2707845685969019
  0.9587611277801216  0.6184254897850749  0.7703978373489733
  0.2700334069725798  0.2068144181259441  0.3677291518227932
  0.2704297453327342  0.2078791116081149  0.8681754731061559
  0.2704547046326837  0.7081327757046978  0.3681952066914960
  0.2706240156246480  0.7077394890207600  0.8685959600083990
  0.7695186797821307  0.2085498926373006  0.3686246396826931
  0.7708060691324974  0.2084216161004306  0.8684655420552119
  0.7701190000199958  0.7085145749615762  0.3687117476788941
  0.7706278767941441  0.7082549133113787  0.8687958369762114
  0.0204096846007431  0.2082414560307768  0.1183195841463629
  0.0202635071806725  0.2078623891499873  0.6183555718707225
  0.0199707035594017  0.7082118136995703  0.1185019987689628
  0.0210096119623984  0.7082278238048758  0.6184532758692498
  0.5212522828244772  0.2070277525282904  0.1166665959687805
  0.5200200686008714  0.2093776933807021  0.6187713957804206
  0.5199988098799722  0.7071270190771699  0.1192331301648295
  0.5208812391905937  0.7091966281369011  0.6189292711845411
  0.2702279344698368  0.4578989917117084  0.1182166447825779
  0.2730511751085132  0.4577124800674994  0.6165578951669985
  0.2704765939939264  0.9576207483596946  0.1184367419045174
  0.2707840564924453  0.9575536713360719  0.6184154564962867
  0.7708173849393916  0.4581471192953330  0.1189441920796099
  0.7726478229348146  0.4587279846129277  0.6190290367594500
  0.7706148144036575  0.9582260498828248  0.1184544712946760
  0.7703980806621331  0.9587603105258822  0.6184252383711595
  0.0211313443138295  0.4580449844701917  0.3683240341214287
  0.0213327001289727  0.4583869105012326  0.8683319484075511
  0.0202487970286924  0.9582509542438444  0.3685137119780535
  0.0206254875040415  0.9579630916203001  0.8685987606473446
  0.5249152957778946  0.4532305476186593  0.3723448996734504
  0.5214361280320006  0.4578776418613799  0.8695597586566493
  0.5201867070711330  0.9586949944724950  0.3686644663607268
  0.5205995957751739  0.9581702539867791  0.8686263085564789
  0.3677291122130200  0.2700337993987176  0.2068146410108653
  0.3681954735287007  0.2704531074757597  0.7081318848730760
  0.3686244414915123  0.7695190675802763  0.2085498183571275
  0.3687110998316285  0.7701178865455418  0.7085144402277024
  0.8681750387052318  0.2704305149900037  0.2078786710349405
  0.8685950090992449  0.2706243212483912  0.7077390309012941
  0.8684653602219612  0.7708067534389542  0.2084219304241657
  0.8687960773787893  0.7706269347510712  0.7082549608873379
  0.1182162170028462  0.2702272598308184  0.4578987832259429
  0.1184355136851494  0.2704789274795232  0.9576203814134558
  0.1189436144881313  0.7708177600937489  0.4581468282150496
  0.1184539635694790  0.7706150093942341  0.9582258569392010
  0.6165584467235234  0.2730510222404305  0.4577125319179984
  0.6184135521085707  0.2707848021231669  0.9575538796015550
  0.6190289181505761  0.7726479692422572  0.4587279564767570
  0.6184253841207052  0.7703981683379695  0.9587602814748806
  0.3683233265624466  0.0211323491092656  0.4580463804634363
  0.3685131434184044  0.0202489274389421  0.9582506681766390
  0.3723462030228504  0.5249151307561917  0.4532291091110139
  0.3686643823894684  0.5201866741276717  0.9586945861750493
  0.8683323008662356  0.0213323887655221  0.4583869031777681
  0.8685985589076566  0.0206256512645382  0.9579629855932197
  0.8695594413374153  0.5214361724742389  0.4578777238817651
  0.8686254160548472  0.5205989628076750  0.9581700600657612
  0.1183191153237502  0.0204103108566969  0.2082422084547062
  0.1185014128544992  0.0199707218419292  0.7082117789943112
  0.1166655918154476  0.5212527033860468  0.2070273748566862
  0.1192333316145167  0.5199982921178687  0.7071266541681709
  0.6183545728745869  0.0202628738489636  0.2078600546702773
  0.6184532155889002  0.0210092507387785  0.7082278464307521
  0.6187708182069187  0.5200229029888987  0.2093773132076464
  0.6189291142626416  0.5208811203457913  0.7091964293480189
  0.2074540851013538  0.2701660139690247  0.1179674089639704
  0.2077340367372429  0.2708585714180103  0.6178057925658820
  0.2080152454103725  0.7701068882286677  0.1183990368971308
  0.2087172167184832  0.7708011855453876  0.6184402564244991
  0.7074166239767905  0.2701902284525630  0.1185208987506172
  0.7075235773644479  0.2706278082947051  0.6186018926662626
  0.7081456954296002  0.7705470922073800  0.1187699117671528
  0.7086015091981892  0.7708661141215742  0.6187590183955436
  0.4543997026562039  0.2716254139737231  0.3646557328893465
  0.4577253634411989  0.2714575393738485  0.8680304341792890
  0.4586664647744811  0.7700292999910303  0.3688747465213496
  0.4583960668536378  0.7712509071406402  0.8691885232887628
  0.9576889665547483  0.2703516878983905  0.3684336621918618
  0.9579023403768119  0.2706392166683003  0.8683878685885560
  0.9585327534974013  0.7704706039990867  0.3685045913652800
  0.9581668237381749  0.7705331354797735  0.8684684943525838
  0.2080908948751983  0.0200856245815189  0.3683609368722287
  0.2082077099540243  0.0207234521023452  0.8683888774261845
  0.2069928235622172  0.5197879900929010  0.3680715543535840
  0.2087014395721027  0.5206515550114474  0.8677977663096996
  0.7079966817909167  0.0205552316246695  0.3684005023089227
  0.7081547751408692  0.0206384182507549  0.8684700065261950
  0.7082656598491823  0.5198912041432280  0.3696109139783630
  0.7084347517233240  0.5203418205063457  0.8690049499810186
  0.4581006246176429  0.0203846855077430  0.1185031828681389
  0.4581846738429363  0.0215150156712198  0.6185497832329929
  0.4585462766816519  0.5214685905630176  0.1191862462011812
  0.4587418115060373  0.5255677014889883  0.6204135618308726
  0.9580431112369325  0.0205126965517977  0.1184949944054665
  0.9582043437566767  0.0206698006169788  0.6185700858282601
  0.9576931279155261  0.5205231994500110  0.1184388883296918
  0.9585606448106176  0.5205833766951784  0.6182987076899238
  0.1179674623374112  0.2074547201655221  0.2701652495473539
  0.1183975389168594  0.2080166789281535  0.7701079100486936
  0.1185205521639148  0.7074170897952428  0.2701922593849702
  0.1187702144458171  0.7081455368561080  0.7705467386438301
  0.6178052555067453  0.2077352167295317  0.2708593921003555
  0.6184384294080729  0.2087178444008373  0.7708025925390416
  0.6186016859237427  0.7075243243262364  0.2706282143721239
  0.6187595066230003  0.7086010480686156  0.7708665818642118
  0.3683601448371903  0.2080914904858275  0.0200856654757544
  0.3680716433921774  0.2069936101930878  0.5197875616520022
  0.3684005323018908  0.7079968861556054  0.0205552130415256
  0.3696108960336915  0.7082665218527495  0.5198930164731763
  0.8683878972651158  0.2082072824094894  0.0207230862083989
  0.8677979069161523  0.2087011209123659  0.5206515673541219
  0.8684700551201985  0.7081554190699677  0.0206392406206604
  0.8690051295220584  0.7084354708703415  0.5203418318483841
  0.1185030696086642  0.4581024362588195  0.0203863912772988
  0.1191861918211998  0.4585468588092780  0.5214684213688727
  0.1184950667831188  0.9580430279081682  0.0205128860699517
  0.1184385364074885  0.9576934874611496  0.5205234180145197
  0.6185494667595961  0.4581852328236735  0.0215153906947450
  0.6204147560379383  0.4587416156586244  0.5255679930916557
  0.6185697532452394  0.9582049143609197  0.0206702057395205
  0.6182980063321892  0.9585605121802345  0.5205837453972109
  0.3646555102876334  0.4544005699227682  0.2716248807459536
  0.3688748777986603  0.4586662353588267  0.7700290201026121
  0.3684337067637102  0.9576890141995946  0.2703520986772716
  0.3685046980618623  0.9585330366710423  0.7704701849074027
  0.8680301588438084  0.4577259074833364  0.2714577454236888
  0.8691889189158033  0.4583962944112159  0.7712513835225963
  0.8683869809980678  0.9579078955153406  0.2706397998302492
  0.8684693795667755  0.9581668034925030  0.7705336061224912
  0.2701657899435190  0.1179676562337519  0.2074542741022114
  0.2701901455146967  0.1185208004650136  0.7074173231654299
  0.2708588420861560  0.6178052886691532  0.2077350840288759
  0.2706280700788710  0.6186009932549368  0.7075242930333090
  0.7701069978630883  0.1183992845385191  0.2080159275438405
  0.7705472033266787  0.1187702029187676  0.7081459657128448
  0.7708017074578848  0.6184403472865583  0.2087173090737906
  0.7708673181900707  0.6187583333523534  0.7086012515101245
  0.0203862460891813  0.1185032715664107  0.4581026135192232
  0.0205131743162639  0.1184949928681860  0.9580429886012993
  0.0215148328576689  0.6185493306467720  0.4581847245307245
  0.0206693980874988  0.6185697952555245  0.9582047600315491
  0.5214691710093646  0.1191861819488693  0.4585469542406742
  0.5205227671704193  0.1184388040478126  0.9576934421696421
  0.5255691053267668  0.6204140526752795  0.4587420296283256
  0.5205839074984198  0.6182977155297351  0.9585606743527322
  0.2716253144602589  0.3646542562591719  0.4543998250557379
  0.2703514581111079  0.3684338831229965  0.9576890366158253
  0.2714578075460850  0.8680301207562735  0.4577260238193830
  0.2706400758186689  0.8683871571499608  0.9579078382955331
  0.7700307971449973  0.3688737332639604  0.4586674964205955
  0.7704700248820373  0.3685047457305828  0.9585330270218435
  0.7712509275007378  0.8691884245828660  0.4583959211323076
  0.7705331137660423  0.8684688254025019  0.9581672127147272
  0.0200859120756434  0.3683610509604023  0.2080910380379919
  0.0205550115375175  0.3684006436262450  0.7079976845065659
  0.0207222410179995  0.8683889223437617  0.2082078247567978
  0.0206391314198129  0.8684697029690867  0.7081551195113036
  0.5197881051423821  0.3680721027585818  0.2069933712594363
  0.5198936284152111  0.3696109504166856  0.7082659793796253
  0.5206516382264965  0.8677972744926947  0.2087014795556215
  0.5203418748928712  0.8690042890140433  0.7084356880014795
 
  0.00000000E+00  0.00000000E+00  0.00000000E+00
  0.00000000E+00  0.00000000E+00  0.00000000E+00
  0.00000000E+00  0.00000000E+00  0.00000000E+00
  0.00000000E+00  0.00000000E+00  0.00000000E+00
  0.00000000E+00  0.00000000E+00  0.00000000E+00
  0.00000000E+00  0.00000000E+00  0.00000000E+00
  0.00000000E+00  0.00000000E+00  0.00000000E+00
  0.00000000E+00  0.00000000E+00  0.00000000E+00
  0.00000000E+00  0.00000000E+00  0.00000000E+00
  0.00000000E+00  0.00000000E+00  0.00000000E+00
  0.00000000E+00  0.00000000E+00  0.00000000E+00
  0.00000000E+00  0.00000000E+00  0.00000000E+00
  0.00000000E+00  0.00000000E+00  0.00000000E+00
  0.00000000E+00  0.00000000E+00  0.00000000E+00
  0.00000000E+00  0.00000000E+00  0.00000000E+00
  0.00000000E+00  0.00000000E+00  0.00000000E+00
  0.00000000E+00  0.00000000E+00  0.00000000E+00
  0.00000000E+00  0.00000000E+00  0.00000000E+00
  0.00000000E+00  0.00000000E+00  0.00000000E+00
  0.00000000E+00  0.00000000E+00  0.00000000E+00
  0.00000000E+00  0.00000000E+00  0.00000000E+00
  0.00000000E+00  0.00000000E+00  0.00000000E+00
  0.00000000E+00  0.00000000E+00  0.00000000E+00
  0.00000000E+00  0.00000000E+00  0.00000000E+00
  0.00000000E+00  0.00000000E+00  0.00000000E+00
  0.00000000E+00  0.00000000E+00  0.00000000E+00
  0.00000000E+00  0.00000000E+00  0.00000000E+00
  0.00000000E+00  0.00000000E+00  0.00000000E+00
  0.00000000E+00  0.00000000E+00  0.00000000E+00
  0.00000000E+00  0.00000000E+00  0.00000000E+00
  0.00000000E+00  0.00000000E+00  0.00000000E+00
  0.00000000E+00  0.00000000E+00  0.00000000E+00
  0.00000000E+00  0.00000000E+00  0.00000000E+00
  0.00000000E+00  0.00000000E+00  0.00000000E+00
  0.00000000E+00  0.00000000E+00  0.00000000E+00
  0.00000000E+00  0.00000000E+00  0.00000000E+00
  0.00000000E+00  0.00000000E+00  0.00000000E+00
  0.00000000E+00  0.00000000E+00  0.00000000E+00
  0.00000000E+00  0.00000000E+00  0.00000000E+00
  0.00000000E+00  0.00000000E+00  0.00000000E+00
  0.00000000E+00  0.00000000E+00  0.00000000E+00
  0.00000000E+00  0.00000000E+00  0.00000000E+00
  0.00000000E+00  0.00000000E+00  0.00000000E+00
  0.00000000E+00  0.00000000E+00  0.00000000E+00
  0.00000000E+00  0.00000000E+00  0.00000000E+00
  0.00000000E+00  0.00000000E+00  0.00000000E+00
  0.00000000E+00  0.00000000E+00  0.00000000E+00
  0.00000000E+00  0.00000000E+00  0.00000000E+00
  0.00000000E+00  0.00000000E+00  0.00000000E+00
  0.00000000E+00  0.00000000E+00  0.00000000E+00
  0.00000000E+00  0.00000000E+00  0.00000000E+00
  0.00000000E+00  0.00000000E+00  0.00000000E+00
  0.00000000E+00  0.00000000E+00  0.00000000E+00
  0.00000000E+00  0.00000000E+00  0.00000000E+00
  0.00000000E+00  0.00000000E+00  0.00000000E+00
  0.00000000E+00  0.00000000E+00  0.00000000E+00
  0.00000000E+00  0.00000000E+00  0.00000000E+00
  0.00000000E+00  0.00000000E+00  0.00000000E+00
  0.00000000E+00  0.00000000E+00  0.00000000E+00
  0.00000000E+00  0.00000000E+00  0.00000000E+00
  0.00000000E+00  0.00000000E+00  0.00000000E+00
  0.00000000E+00  0.00000000E+00  0.00000000E+00
  0.00000000E+00  0.00000000E+00  0.00000000E+00
  0.00000000E+00  0.00000000E+00  0.00000000E+00
  0.00000000E+00  0.00000000E+00  0.00000000E+00
  0.00000000E+00  0.00000000E+00  0.00000000E+00
  0.00000000E+00  0.00000000E+00  0.00000000E+00
  0.00000000E+00  0.00000000E+00  0.00000000E+00
  0.00000000E+00  0.00000000E+00  0.00000000E+00
  0.00000000E+00  0.00000000E+00  0.00000000E+00
  0.00000000E+00  0.00000000E+00  0.00000000E+00
  0.00000000E+00  0.00000000E+00  0.00000000E+00
  0.00000000E+00  0.00000000E+00  0.00000000E+00
  0.00000000E+00  0.00000000E+00  0.00000000E+00
  0.00000000E+00  0.00000000E+00  0.00000000E+00
  0.00000000E+00  0.00000000E+00  0.00000000E+00
  0.00000000E+00  0.00000000E+00  0.00000000E+00
  0.00000000E+00  0.00000000E+00  0.00000000E+00
  0.00000000E+00  0.00000000E+00  0.00000000E+00
  0.00000000E+00  0.00000000E+00  0.00000000E+00
  0.00000000E+00  0.00000000E+00  0.00000000E+00
  0.00000000E+00  0.00000000E+00  0.00000000E+00
  0.00000000E+00  0.00000000E+00  0.00000000E+00
  0.00000000E+00  0.00000000E+00  0.00000000E+00
  0.00000000E+00  0.00000000E+00  0.00000000E+00
  0.00000000E+00  0.00000000E+00  0.00000000E+00
  0.00000000E+00  0.00000000E+00  0.00000000E+00
  0.00000000E+00  0.00000000E+00  0.00000000E+00
  0.00000000E+00  0.00000000E+00  0.00000000E+00
  0.00000000E+00  0.00000000E+00  0.00000000E+00
  0.00000000E+00  0.00000000E+00  0.00000000E+00
  0.00000000E+00  0.00000000E+00  0.00000000E+00
  0.00000000E+00  0.00000000E+00  0.00000000E+00
  0.00000000E+00  0.00000000E+00  0.00000000E+00
  0.00000000E+00  0.00000000E+00  0.00000000E+00
  0.00000000E+00  0.00000000E+00  0.00000000E+00
  0.00000000E+00  0.00000000E+00  0.00000000E+00
  0.00000000E+00  0.00000000E+00  0.00000000E+00
  0.00000000E+00  0.00000000E+00  0.00000000E+00
  0.00000000E+00  0.00000000E+00  0.00000000E+00
  0.00000000E+00  0.00000000E+00  0.00000000E+00
  0.00000000E+00  0.00000000E+00  0.00000000E+00
  0.00000000E+00  0.00000000E+00  0.00000000E+00
  0.00000000E+00  0.00000000E+00  0.00000000E+00
  0.00000000E+00  0.00000000E+00  0.00000000E+00
  0.00000000E+00  0.00000000E+00  0.00000000E+00
  0.00000000E+00  0.00000000E+00  0.00000000E+00
  0.00000000E+00  0.00000000E+00  0.00000000E+00
  0.00000000E+00  0.00000000E+00  0.00000000E+00
  0.00000000E+00  0.00000000E+00  0.00000000E+00
  0.00000000E+00  0.00000000E+00  0.00000000E+00
  0.00000000E+00  0.00000000E+00  0.00000000E+00
  0.00000000E+00  0.00000000E+00  0.00000000E+00
  0.00000000E+00  0.00000000E+00  0.00000000E+00
  0.00000000E+00  0.00000000E+00  0.00000000E+00
  0.00000000E+00  0.00000000E+00  0.00000000E+00
  0.00000000E+00  0.00000000E+00  0.00000000E+00
  0.00000000E+00  0.00000000E+00  0.00000000E+00
  0.00000000E+00  0.00000000E+00  0.00000000E+00
  0.00000000E+00  0.00000000E+00  0.00000000E+00
  0.00000000E+00  0.00000000E+00  0.00000000E+00
  0.00000000E+00  0.00000000E+00  0.00000000E+00
  0.00000000E+00  0.00000000E+00  0.00000000E+00
  0.00000000E+00  0.00000000E+00  0.00000000E+00
  0.00000000E+00  0.00000000E+00  0.00000000E+00
  0.00000000E+00  0.00000000E+00  0.00000000E+00
  0.00000000E+00  0.00000000E+00  0.00000000E+00
  0.00000000E+00  0.00000000E+00  0.00000000E+00
  0.00000000E+00  0.00000000E+00  0.00000000E+00
  0.00000000E+00  0.00000000E+00  0.00000000E+00
  0.00000000E+00  0.00000000E+00  0.00000000E+00
  0.00000000E+00  0.00000000E+00  0.00000000E+00
  0.00000000E+00  0.00000000E+00  0.00000000E+00
  0.00000000E+00  0.00000000E+00  0.00000000E+00
  0.00000000E+00  0.00000000E+00  0.00000000E+00
  0.00000000E+00  0.00000000E+00  0.00000000E+00
  0.00000000E+00  0.00000000E+00  0.00000000E+00
  0.00000000E+00  0.00000000E+00  0.00000000E+00
  0.00000000E+00  0.00000000E+00  0.00000000E+00
  0.00000000E+00  0.00000000E+00  0.00000000E+00
  0.00000000E+00  0.00000000E+00  0.00000000E+00
  0.00000000E+00  0.00000000E+00  0.00000000E+00
  0.00000000E+00  0.00000000E+00  0.00000000E+00
  0.00000000E+00  0.00000000E+00  0.00000000E+00
  0.00000000E+00  0.00000000E+00  0.00000000E+00
  0.00000000E+00  0.00000000E+00  0.00000000E+00
  0.00000000E+00  0.00000000E+00  0.00000000E+00
  0.00000000E+00  0.00000000E+00  0.00000000E+00
  0.00000000E+00  0.00000000E+00  0.00000000E+00
  0.00000000E+00  0.00000000E+00  0.00000000E+00
  0.00000000E+00  0.00000000E+00  0.00000000E+00
  0.00000000E+00  0.00000000E+00  0.00000000E+00
  0.00000000E+00  0.00000000E+00  0.00000000E+00
  0.00000000E+00  0.00000000E+00  0.00000000E+00
  0.00000000E+00  0.00000000E+00  0.00000000E+00
  0.00000000E+00  0.00000000E+00  0.00000000E+00
  0.00000000E+00  0.00000000E+00  0.00000000E+00
  0.00000000E+00  0.00000000E+00  0.00000000E+00
  0.00000000E+00  0.00000000E+00  0.00000000E+00
  0.00000000E+00  0.00000000E+00  0.00000000E+00
  0.00000000E+00  0.00000000E+00  0.00000000E+00
  0.00000000E+00  0.00000000E+00  0.00000000E+00
  0.00000000E+00  0.00000000E+00  0.00000000E+00
  0.00000000E+00  0.00000000E+00  0.00000000E+00
  0.00000000E+00  0.00000000E+00  0.00000000E+00
  0.00000000E+00  0.00000000E+00  0.00000000E+00
  0.00000000E+00  0.00000000E+00  0.00000000E+00
  0.00000000E+00  0.00000000E+00  0.00000000E+00
  0.00000000E+00  0.00000000E+00  0.00000000E+00
  0.00000000E+00  0.00000000E+00  0.00000000E+00
  0.00000000E+00  0.00000000E+00  0.00000000E+00
  0.00000000E+00  0.00000000E+00  0.00000000E+00
  0.00000000E+00  0.00000000E+00  0.00000000E+00
  0.00000000E+00  0.00000000E+00  0.00000000E+00
  0.00000000E+00  0.00000000E+00  0.00000000E+00
  0.00000000E+00  0.00000000E+00  0.00000000E+00
  0.00000000E+00  0.00000000E+00  0.00000000E+00
  0.00000000E+00  0.00000000E+00  0.00000000E+00
  0.00000000E+00  0.00000000E+00  0.00000000E+00
  0.00000000E+00  0.00000000E+00  0.00000000E+00
  0.00000000E+00  0.00000000E+00  0.00000000E+00
  0.00000000E+00  0.00000000E+00  0.00000000E+00
  0.00000000E+00  0.00000000E+00  0.00000000E+00
  0.00000000E+00  0.00000000E+00  0.00000000E+00
  0.00000000E+00  0.00000000E+00  0.00000000E+00
  0.00000000E+00  0.00000000E+00  0.00000000E+00
  0.00000000E+00  0.00000000E+00  0.00000000E+00
  0.00000000E+00  0.00000000E+00  0.00000000E+00
  0.00000000E+00  0.00000000E+00  0.00000000E+00
  0.00000000E+00  0.00000000E+00  0.00000000E+00
  0.00000000E+00  0.00000000E+00  0.00000000E+00
  0.00000000E+00  0.00000000E+00  0.00000000E+00
  0.00000000E+00  0.00000000E+00  0.00000000E+00
  0.00000000E+00  0.00000000E+00  0.00000000E+00
  0.00000000E+00  0.00000000E+00  0.00000000E+00
  0.00000000E+00  0.00000000E+00  0.00000000E+00
  0.00000000E+00  0.00000000E+00  0.00000000E+00
  0.00000000E+00  0.00000000E+00  0.00000000E+00
  0.00000000E+00  0.00000000E+00  0.00000000E+00
  0.00000000E+00  0.00000000E+00  0.00000000E+00
  0.00000000E+00  0.00000000E+00  0.00000000E+00
  0.00000000E+00  0.00000000E+00  0.00000000E+00
  0.00000000E+00  0.00000000E+00  0.00000000E+00
  0.00000000E+00  0.00000000E+00  0.00000000E+00
  0.00000000E+00  0.00000000E+00  0.00000000E+00
  0.00000000E+00  0.00000000E+00  0.00000000E+00
  0.00000000E+00  0.00000000E+00  0.00000000E+00