Li95 Nb32 O128                          
   1.00000000000000     
    13.7806110000000004   -0.0000030000000000   -4.8721819999999996
    -6.8903090000000002   11.9343559999999993   -4.8721850000000000
     0.0000000000000000   -0.0000040000000000   14.6165459999999996
   Li   Nb   O 
    95    32   128
Direct
  0.0002907788774138  0.1367703994787774  0.2573692913635597
  0.9999243236793802  0.1365551422045925  0.7573209844164808
  0.0000749722132554  0.6366305041148337  0.2573961948619541
  0.9997094336793566  0.6364796976973821  0.7570786695610892
  0.5000002021657437  0.1357839682370425  0.7568960622239089
  0.4999999888407345  0.6360540707340832  0.2578264989323671
  0.4999995132804287  0.6357708902655048  0.7557798989569307
  0.3631515599979735  0.3627187156936742  0.1212480454147880
  0.3620624424988108  0.3636211011997119  0.6213595647975225
  0.3629968152228997  0.8632273457588653  0.1210803939250908
  0.3636436243129637  0.8635816888251853  0.6205939408875452
  0.8627595653912579  0.3620840259802449  0.1202991629509711
  0.8622613923496658  0.3632141928103536  0.6200609499599636
  0.8635628852125663  0.8635645189503904  0.1208341321698114
  0.8632975619369034  0.8633317564432659  0.6207368369296375
  0.1377383073164822  0.0009524887978714  0.2577994887422292
  0.1372402100521128  0.9993241262056145  0.7575394955545676
  0.1367024374357300  0.5000344007833419  0.2574393465700737
  0.1364369688595488  0.5000014188822206  0.7572712552900569
  0.6370032722936898  0.0002306541658754  0.2580833552098412
  0.6363563436869057  0.9999381000773937  0.7569500884651106
  0.6368486186345663  0.4995671713582865  0.2580964577526856
  0.6379374651795544  0.5015586929312548  0.7592969003018268
  0.0002780470335750  0.2571630266403631  0.1366333765256087
  0.0001443204311471  0.2574357255598159  0.6365787635344375
  0.9998553605669898  0.7572915970580283  0.1364345398078015
  0.9997219137290614  0.7568850239147480  0.6363552183350620
  0.5000003386157346  0.2571656228851396  0.1377974721820294
  0.5000000631483061  0.2578362433864285  0.6377856840889109
  0.5000000501594357  0.7580365638877069  0.1366702511816698
  0.4999998720546870  0.7576409218538842  0.6357672477596523
  0.1363610908024100  0.2573481645732727  0.9998046315044320
  0.1362894132442278  0.2574932532414991  0.5000120343541212
  0.1370895732683408  0.7578870245723834  0.0001250571544986
  0.1366067705863045  0.7573804761535357  0.5001363683010709
  0.6364643944413899  0.2566208842655655  0.9997821025197737
  0.6327767619275377  0.2554267773362753  0.4955279970169570
  0.6371664331931157  0.7572411397819607  0.9997882766672461
  0.6359108926265336  0.7567384486892834  0.4997179939118723
  0.3672219471249036  0.1226490799500155  0.3627500514048378
  0.3635355268269862  0.1201564637171444  0.8633179241796185
  0.3640891216412498  0.6208274997058965  0.3638069345611186
  0.3628337817123253  0.6200745612219336  0.8626220652694130
  0.8629103998563679  0.1207976337739680  0.3630356801107339
  0.8633931784763291  0.1207738620217569  0.8635292169407407
  0.8636384978886085  0.6209870403675311  0.3634430208748327
  0.8637106869512579  0.6212040096065863  0.8637222378463534
  0.1206280116826335  0.3634089648849610  0.3635573355049644
  0.1208798276757861  0.3636253906756579  0.8636092669889734
  0.1204451851146544  0.8633324600821410  0.3634050643953302
  0.1218026207119678  0.8637615982043272  0.8635311139851467
  0.6148354255783133  0.3510277861984363  0.3594035028039855
  0.6206874698659064  0.3629331814803791  0.8632783921160225
  0.6202220568083590  0.8642945146263301  0.3629512814229940
  0.6209629395177956  0.8635115938474200  0.8631670123511981
  0.2574574994465593  0.1369505271297342  0.9992030306604534
  0.2579079980208547  0.1372033572951636  0.5001320767758557
  0.2574893252903365  0.6366061317342542  0.9995409635078829
  0.2575810194200230  0.6373939315370194  0.5000741907211008
  0.7566088670797697  0.1356965150551801  0.0000036569578796
  0.7589072762366627  0.1369348352683133  0.5014248038958300
  0.7576502027512788  0.6366958504670635  0.0003860296932388
  0.7571858193319514  0.6365126063572220  0.5001721318110199
  0.2606218243437226  0.0008937370451250  0.1390022205482495
  0.2577696270145040  0.9997819498848415  0.6365927112740764
  0.2578497487286882  0.4999384003439644  0.1371921748160361
  0.2568613291942867  0.4999708452007496  0.6363183860560682
  0.7565805699147958  0.0002379889468145  0.1360547766899955
  0.7569788301119758  0.9998285418889452  0.6362144244609311
  0.7571508963665252  0.5001057593245903  0.1364204330873235
  0.7565202465235856  0.5002024489598185  0.6365241797301664
  0.3851650789721504  0.2361923915227848  0.2445682697686919
  0.3793127258128806  0.2422452929083647  0.7425907623780645
  0.3797779931149918  0.7440726325132800  0.2427294139821612
  0.3790375740489864  0.7425487638133319  0.7422041774344592
  0.8781976648891145  0.2419586509262501  0.2417283398520880
  0.8795544701224287  0.2428869862128948  0.7429594798144521
  0.8791199729256149  0.7427453436001059  0.2427290168083616
  0.8793721750905235  0.7427810097796907  0.7429293702072783
  0.2434794505578637  0.2436819368466558  0.3800039994225841
  0.2428487270222774  0.2429543136991583  0.8792698121882339
  0.2430209528103191  0.7428495160119652  0.3792356867142672
  0.2434200561439894  0.7436579225820452  0.8794751051630172
  0.7393787541740409  0.2402728329133694  0.3783807764513227
  0.7422304873184444  0.2420126910279805  0.8788232961142484
  0.7421498934582971  0.7420882905303543  0.3793422856877626
  0.7431390908109705  0.7431093934096609  0.8794570999966851
  0.2428143445949686  0.3793266994234372  0.2429862088772623
  0.2423491767690606  0.3790454427334424  0.7427352357330861
  0.2410932094004608  0.8780276701785255  0.2425179367224999
  0.2433911101918724  0.8790882169090892  0.7433950588785834
  0.7425425352023609  0.3794936674913814  0.2417458096627030
  0.7420920087347085  0.3792958240439361  0.7422239104576605
  0.7425105992911583  0.8791169264727756  0.2420517652628575
  0.7424190363247121  0.8798131270744491  0.7424929016224340
  0.0000692413151526  0.0001947240629931  0.3590276418526201
  0.0000155700752629  0.0000320801689995  0.8589522933473432
  0.9999841521227069  0.5000166852578118  0.3589369810027776
  0.9999305377709149  0.5001253981841387  0.8589583001188714
  0.5000000042533017  0.0032885300984020  0.3572276301870261
  0.5000001003182888  0.9991306476971786  0.8590450034626258
  0.5000000957109521  0.4985543687680192  0.3595489469837290
  0.5000005016366131  0.5001680136023694  0.8593003758850344
  0.9999545602508135  0.3588680810983362  0.9999800645489145
  0.9995822275712882  0.3589081841846564  0.4999285681587438
  0.0004181118957902  0.8593260069130153  0.0003468228262022
  0.0000447035116764  0.8589123195194048  0.5000247899710786
  0.5000002400971084  0.3589016365566522  0.9997887958913978
  0.5000004759886068  0.3610178649574465  0.5038782481541872
  0.5000000533758779  0.8575608093385796  0.9982816360864959
  0.5000000512695664  0.8593235421877807  0.4989923565071166
  0.3601966224779929  0.0023772860075795  0.0027025492799311
  0.3588487442933257  0.9996876973796560  0.4991486433643146
  0.3591295162599479  0.5001387384332432  0.0003384733976901
  0.3587418323214919  0.5009968772390891  0.5003596833006654
  0.8595572877768660  0.0002181073961296  0.0001902755124021
  0.8589947024959557  0.9994844938327887  0.4997693585915144
  0.8590445624617118  0.4997623725288705  0.0000855987782060
  0.8576313013439716  0.4992027795933183  0.4989653593682704
  0.1423695084303063  0.1415711791417564  0.1413337556721572
  0.1409552118082686  0.1407175656649002  0.6410413800886587
  0.1410053020370512  0.6404900540994376  0.1407746533189851
  0.1404427708439400  0.6406610101370731  0.6406335544724016
  0.6398030429764745  0.1421802224591957  0.1425057520629309
  0.6411514085413543  0.1408392856053950  0.6403001237082933
  0.6408710410696230  0.6410096148549727  0.1412090501363110
  0.6412583843063047  0.6422552691139884  0.6416181642389134
  0.9999418013058374  0.3792028104386134  0.2560622549193852
  0.0000394568305140  0.3793479399061042  0.7562546725799422
  0.9999603026329495  0.8793083886527668  0.2562150738402167
  0.0000579931940834  0.8792608323632152  0.7561200052640302
  0.4999999412530869  0.3780076590659860  0.2570063845389896
  0.4999997565588288  0.3792976266056627  0.7569761828606758
  0.4999993060849590  0.8804531442535861  0.2557650661065054
  0.4999999598404017  0.8792469957649089  0.7550146008112364
  0.1207603044872911  0.1210337422321359  0.3769294013225064
  0.1207373572203352  0.1205654039442834  0.8764408814061184
  0.1206905833141789  0.6209252954159084  0.3768518496808042
  0.1207191127659542  0.6207751939872992  0.8768092355528836
  0.6264523466645073  0.1206349644286817  0.3813874627388358
  0.6205133308736279  0.1203063434447884  0.8764740280486620
  0.6203601030720023  0.6198161396383597  0.3770048199491427
  0.6210858732232580  0.6207449688264788  0.8771958462306060
  0.3735481579612454  0.9941832998417439  0.2549356637686557
  0.3794865120853501  0.9997929863314283  0.7559609373074565
  0.3796401554794357  0.4994561706427945  0.2566447059810812
  0.3789144170768353  0.4996587498016751  0.7561104008072164
  0.8792809721187140  0.0000562010231491  0.2560900571892546
  0.8793093041123043  0.0002344336347235  0.7561607337076097
  0.8792622887903292  0.4998273979573256  0.2557030557017583
  0.8792397830289644  0.5002734243118709  0.7561689077135441
  0.9995887382354169  0.2560250399538830  0.3791173999851765
  0.0001287650955035  0.2561362649138985  0.8792362643374503
  0.9998688841833214  0.7560054550496318  0.3791058876428721
  0.0004111204856230  0.7564362430039182  0.8795287286218922
  0.4999999569191687  0.2597201252339971  0.3850462532824039
  0.4999999277854315  0.2558784880089533  0.8791792211695650
  0.5000000182582838  0.7559904371688617  0.3786938788568861
  0.4999999479081865  0.7546543146474605  0.8776450260341946
  0.3790181260613892  0.2564714435536430  0.9995927891854066
  0.3786413896124330  0.2576718272576741  0.5028751670660441
  0.3793189093879406  0.7554483802336591  0.9991695987621725
  0.3793620573936067  0.7567106082573289  0.4997894738556781
  0.8792509384831533  0.2558212896313634  0.9997139960939094
  0.8794868907975726  0.2561701235461697  0.5003726613035795
  0.8795134805136797  0.7563171615756730  0.0001898305725163
  0.8792689983729503  0.7562665294952851  0.5000800608355647
  0.1207309702246420  0.3769975943730870  0.1208106439912129
  0.1204865447747139  0.3768039519307891  0.6206763345208444
  0.1205135301403857  0.8766833730992829  0.1208862067092937
  0.1207487584965961  0.8765700788390802  0.6204627823819138
  0.6209827815255196  0.3774542439114441  0.1205753168847892
  0.6213589888453228  0.3790301512920919  0.6242340858546669
  0.6206812556482575  0.8761297127230634  0.1198508810408185
  0.6206381629725684  0.8773489970961563  0.6204275045739394
  0.3705358256387399  0.1214186585285049  0.1142982645252744
  0.3771483042423114  0.1205547706410641  0.6205791387394299
  0.3769813811604976  0.6209415732889951  0.1209313582518519
  0.3762905954742450  0.6218713234982118  0.6208323231336124
  0.8772862588548236  0.1207535550757939  0.1210377915135865
  0.8767939299117415  0.1205476168235364  0.6204988786750150
  0.8769184919627122  0.6205942951798420  0.1208671583753187
  0.8763203092488183  0.6202632998542370  0.6203460880391276
  0.2560597601891814  0.3794405073458051  0.0001397699994357
  0.2556844047691342  0.3802665229042788  0.5004514661199551
  0.2571538924921128  0.8800336679382639  0.0011529454437493
  0.2559731368232150  0.8793840592507820  0.4997399569410774
  0.7560331479395401  0.3789155150022268  0.9997657726135571
  0.7548835191431706  0.3785219527146282  0.4990944536329636
  0.7566835747795295  0.8793740180327063  0.0001235369527492
  0.7560565350141033  0.8790626844153735  0.4999285605085859
  0.2556632308179729  0.0002728330252637  0.3793914487941663
  0.2564633693864877  0.9980429669795541  0.8776606176215012
  0.2557723786164274  0.5006174879103256  0.3792385361866764
  0.2560561575779801  0.4999049126988453  0.8793434937526001
  0.7565076764782646  0.9994186732516823  0.3788907485795363
  0.7564715441500596  0.0002877374334460  0.8794514832731011
  0.7571251519000128  0.5015355073778025  0.3793748306168325
  0.7563775553197374  0.5003001966684053  0.8797657140649022
  0.1236805697099257  0.2439425087864038  0.2440259186183624
  0.1230820826850305  0.2436762432491548  0.7439492723349161
  0.1232063598417170  0.7437541642522518  0.2437050563513736
  0.1227139643383808  0.7434674393581560  0.7437519595981996
  0.6294650630249521  0.2508834493552854  0.2437626399032737
  0.6228519833804427  0.2434067723389219  0.7434310572243987
  0.6230190645983171  0.7439604991414441  0.2439500892555770
  0.6237097113017214  0.7455809667407038  0.7445419080790572
  0.2428754764253114  0.2444107290570585  0.1222496809961413
  0.2436223482873814  0.2439225284125612  0.6233884497077398
  0.2434923261211495  0.7429112185912317  0.1223833935711554
  0.2435283836197115  0.7438163194530816  0.6229803764650654
  0.7435340643682338  0.2415774812899656  0.1211932809912852
  0.7443365794960854  0.2446097678214372  0.6237280373201628
  0.7439443581029010  0.7438496351083899  0.1232877592619275
  0.7442277487715714  0.7448455011860418  0.6234665813951423
  0.2451167527227938  0.1236381305551859  0.2442111568070828
  0.2439667004109367  0.1228822320986040  0.7437328871762574
  0.2439435399608101  0.6230063364500324  0.2438722668182791
  0.2433167623923467  0.6226907369922259  0.7434403616873908
  0.7428469379544609  0.1228803295118297  0.2439989928426343
  0.7440268967362087  0.1234112024352427  0.7437669337870148
  0.7439403366347364  0.6233808847881050  0.2440802309629433
  0.7443154509858871  0.6245818751112253  0.7447669960849908
  0.0005140440690994  0.0003087826223265  0.1142808514315163
  0.9999283186144154  0.9997991299486628  0.6140587638697781
  0.0000715879601927  0.4998712185606422  0.1141304696065362
  0.9994862214343172  0.4997951209847002  0.6137669051131311
  0.5000003917388867  0.9978737785876604  0.1092717826685501
  0.5000000237589077  0.0005611556156495  0.6142606410999178
  0.5000005820100384  0.5001910992596379  0.1142677846279128
  0.5000001085486261  0.5035255280615161  0.6169583625500294
  0.0000736362503631  0.1141870419449162  0.9999311484689244
  0.0001255820692450  0.1140516231919406  0.5000714110381708
  0.9998746474673013  0.6139262068995279  0.9999457264469100
  0.9999266786889294  0.6141136615378571  0.4998579117219180
  0.4999995488359801  0.1141544412365860  0.0000368574267924
  0.5000000449602453  0.1143837436883501  0.4989523486456733
  0.5000001741770177  0.6141007468059883  0.0000524507864981
  0.5000004717453024  0.6153114238964790  0.5005220325320394
  0.1136969135940120  0.0001196809341266  0.9997347931401492
  0.1140392866136182  0.9999319723802955  0.4999944733292310
  0.1139829445392238  0.4998288793960697  0.9998368913005251
  0.1140206749686286  0.5000129988420312  0.4999012177774418
  0.6140917722119497  0.9984297623472145  0.9980908360685419
  0.6137948493191203  0.0000285055439235  0.5003071577834746
  0.6141902901499279  0.5001865694902605  0.0002165236695078
  0.6140288176917394  0.5017055188713826  0.5022521859352480
  0.3859717194498842  0.3876769790925323  0.3882235730307073
  0.3858123595174305  0.3859974543751861  0.8860285060694224
  0.3862051727992437  0.8862337056308860  0.3865120734619865
  0.3859080052155690  0.8843382639206254  0.8839993654363241
  0.8863030056448693  0.3864227913278313  0.3860376966879002
  0.8859606228123909  0.3858929633795043  0.8859550099915765
  0.8860172786679641  0.8858457984618937  0.3858540215747084
  0.8859796780706404  0.8859921970228157  0.8858805105219858
 
  0.00000000E+00  0.00000000E+00  0.00000000E+00
  0.00000000E+00  0.00000000E+00  0.00000000E+00
  0.00000000E+00  0.00000000E+00  0.00000000E+00
  0.00000000E+00  0.00000000E+00  0.00000000E+00
  0.00000000E+00  0.00000000E+00  0.00000000E+00
  0.00000000E+00  0.00000000E+00  0.00000000E+00
  0.00000000E+00  0.00000000E+00  0.00000000E+00
  0.00000000E+00  0.00000000E+00  0.00000000E+00
  0.00000000E+00  0.00000000E+00  0.00000000E+00
  0.00000000E+00  0.00000000E+00  0.00000000E+00
  0.00000000E+00  0.00000000E+00  0.00000000E+00
  0.00000000E+00  0.00000000E+00  0.00000000E+00
  0.00000000E+00  0.00000000E+00  0.00000000E+00
  0.00000000E+00  0.00000000E+00  0.00000000E+00
  0.00000000E+00  0.00000000E+00  0.00000000E+00
  0.00000000E+00  0.00000000E+00  0.00000000E+00
  0.00000000E+00  0.00000000E+00  0.00000000E+00
  0.00000000E+00  0.00000000E+00  0.00000000E+00
  0.00000000E+00  0.00000000E+00  0.00000000E+00
  0.00000000E+00  0.00000000E+00  0.00000000E+00
  0.00000000E+00  0.00000000E+00  0.00000000E+00
  0.00000000E+00  0.00000000E+00  0.00000000E+00
  0.00000000E+00  0.00000000E+00  0.00000000E+00
  0.00000000E+00  0.00000000E+00  0.00000000E+00
  0.00000000E+00  0.00000000E+00  0.00000000E+00
  0.00000000E+00  0.00000000E+00  0.00000000E+00
  0.00000000E+00  0.00000000E+00  0.00000000E+00
  0.00000000E+00  0.00000000E+00  0.00000000E+00
  0.00000000E+00  0.00000000E+00  0.00000000E+00
  0.00000000E+00  0.00000000E+00  0.00000000E+00
  0.00000000E+00  0.00000000E+00  0.00000000E+00
  0.00000000E+00  0.00000000E+00  0.00000000E+00
  0.00000000E+00  0.00000000E+00  0.00000000E+00
  0.00000000E+00  0.00000000E+00  0.00000000E+00
  0.00000000E+00  0.00000000E+00  0.00000000E+00
  0.00000000E+00  0.00000000E+00  0.00000000E+00
  0.00000000E+00  0.00000000E+00  0.00000000E+00
  0.00000000E+00  0.00000000E+00  0.00000000E+00
  0.00000000E+00  0.00000000E+00  0.00000000E+00
  0.00000000E+00  0.00000000E+00  0.00000000E+00
  0.00000000E+00  0.00000000E+00  0.00000000E+00
  0.00000000E+00  0.00000000E+00  0.00000000E+00
  0.00000000E+00  0.00000000E+00  0.00000000E+00
  0.00000000E+00  0.00000000E+00  0.00000000E+00
  0.00000000E+00  0.00000000E+00  0.00000000E+00
  0.00000000E+00  0.00000000E+00  0.00000000E+00
  0.00000000E+00  0.00000000E+00  0.00000000E+00
  0.00000000E+00  0.00000000E+00  0.00000000E+00
  0.00000000E+00  0.00000000E+00  0.00000000E+00
  0.00000000E+00  0.00000000E+00  0.00000000E+00
  0.00000000E+00  0.00000000E+00  0.00000000E+00
  0.00000000E+00  0.00000000E+00  0.00000000E+00
  0.00000000E+00  0.00000000E+00  0.00000000E+00
  0.00000000E+00  0.00000000E+00  0.00000000E+00
  0.00000000E+00  0.00000000E+00  0.00000000E+00
  0.00000000E+00  0.00000000E+00  0.00000000E+00
  0.00000000E+00  0.00000000E+00  0.00000000E+00
  0.00000000E+00  0.00000000E+00  0.00000000E+00
  0.00000000E+00  0.00000000E+00  0.00000000E+00
  0.00000000E+00  0.00000000E+00  0.00000000E+00
  0.00000000E+00  0.00000000E+00  0.00000000E+00
  0.00000000E+00  0.00000000E+00  0.00000000E+00
  0.00000000E+00  0.00000000E+00  0.00000000E+00
  0.00000000E+00  0.00000000E+00  0.00000000E+00
  0.00000000E+00  0.00000000E+00  0.00000000E+00
  0.00000000E+00  0.00000000E+00  0.00000000E+00
  0.00000000E+00  0.00000000E+00  0.00000000E+00
  0.00000000E+00  0.00000000E+00  0.00000000E+00
  0.00000000E+00  0.00000000E+00  0.00000000E+00
  0.00000000E+00  0.00000000E+00  0.00000000E+00
  0.00000000E+00  0.00000000E+00  0.00000000E+00
  0.00000000E+00  0.00000000E+00  0.00000000E+00
  0.00000000E+00  0.00000000E+00  0.00000000E+00
  0.00000000E+00  0.00000000E+00  0.00000000E+00
  0.00000000E+00  0.00000000E+00  0.00000000E+00
  0.00000000E+00  0.00000000E+00  0.00000000E+00
  0.00000000E+00  0.00000000E+00  0.00000000E+00
  0.00000000E+00  0.00000000E+00  0.00000000E+00
  0.00000000E+00  0.00000000E+00  0.00000000E+00
  0.00000000E+00  0.00000000E+00  0.00000000E+00
  0.00000000E+00  0.00000000E+00  0.00000000E+00
  0.00000000E+00  0.00000000E+00  0.00000000E+00
  0.00000000E+00  0.00000000E+00  0.00000000E+00
  0.00000000E+00  0.00000000E+00  0.00000000E+00
  0.00000000E+00  0.00000000E+00  0.00000000E+00
  0.00000000E+00  0.00000000E+00  0.00000000E+00
  0.00000000E+00  0.00000000E+00  0.00000000E+00
  0.00000000E+00  0.00000000E+00  0.00000000E+00
  0.00000000E+00  0.00000000E+00  0.00000000E+00
  0.00000000E+00  0.00000000E+00  0.00000000E+00
  0.00000000E+00  0.00000000E+00  0.00000000E+00
  0.00000000E+00  0.00000000E+00  0.00000000E+00
  0.00000000E+00  0.00000000E+00  0.00000000E+00
  0.00000000E+00  0.00000000E+00  0.00000000E+00
  0.00000000E+00  0.00000000E+00  0.00000000E+00
  0.00000000E+00  0.00000000E+00  0.00000000E+00
  0.00000000E+00  0.00000000E+00  0.00000000E+00
  0.00000000E+00  0.00000000E+00  0.00000000E+00
  0.00000000E+00  0.00000000E+00  0.00000000E+00
  0.00000000E+00  0.00000000E+00  0.00000000E+00
  0.00000000E+00  0.00000000E+00  0.00000000E+00
  0.00000000E+00  0.00000000E+00  0.00000000E+00
  0.00000000E+00  0.00000000E+00  0.00000000E+00
  0.00000000E+00  0.00000000E+00  0.00000000E+00
  0.00000000E+00  0.00000000E+00  0.00000000E+00
  0.00000000E+00  0.00000000E+00  0.00000000E+00
  0.00000000E+00  0.00000000E+00  0.00000000E+00
  0.00000000E+00  0.00000000E+00  0.00000000E+00
  0.00000000E+00  0.00000000E+00  0.00000000E+00
  0.00000000E+00  0.00000000E+00  0.00000000E+00
  0.00000000E+00  0.00000000E+00  0.00000000E+00
  0.00000000E+00  0.00000000E+00  0.00000000E+00
  0.00000000E+00  0.00000000E+00  0.00000000E+00
  0.00000000E+00  0.00000000E+00  0.00000000E+00
  0.00000000E+00  0.00000000E+00  0.00000000E+00
  0.00000000E+00  0.00000000E+00  0.00000000E+00
  0.00000000E+00  0.00000000E+00  0.00000000E+00
  0.00000000E+00  0.00000000E+00  0.00000000E+00
  0.00000000E+00  0.00000000E+00  0.00000000E+00
  0.00000000E+00  0.00000000E+00  0.00000000E+00
  0.00000000E+00  0.00000000E+00  0.00000000E+00
  0.00000000E+00  0.00000000E+00  0.00000000E+00
  0.00000000E+00  0.00000000E+00  0.00000000E+00
  0.00000000E+00  0.00000000E+00  0.00000000E+00
  0.00000000E+00  0.00000000E+00  0.00000000E+00
  0.00000000E+00  0.00000000E+00  0.00000000E+00
  0.00000000E+00  0.00000000E+00  0.00000000E+00
  0.00000000E+00  0.00000000E+00  0.00000000E+00
  0.00000000E+00  0.00000000E+00  0.00000000E+00
  0.00000000E+00  0.00000000E+00  0.00000000E+00
  0.00000000E+00  0.00000000E+00  0.00000000E+00
  0.00000000E+00  0.00000000E+00  0.00000000E+00
  0.00000000E+00  0.00000000E+00  0.00000000E+00
  0.00000000E+00  0.00000000E+00  0.00000000E+00
  0.00000000E+00  0.00000000E+00  0.00000000E+00
  0.00000000E+00  0.00000000E+00  0.00000000E+00
  0.00000000E+00  0.00000000E+00  0.00000000E+00
  0.00000000E+00  0.00000000E+00  0.00000000E+00
  0.00000000E+00  0.00000000E+00  0.00000000E+00
  0.00000000E+00  0.00000000E+00  0.00000000E+00
  0.00000000E+00  0.00000000E+00  0.00000000E+00
  0.00000000E+00  0.00000000E+00  0.00000000E+00
  0.00000000E+00  0.00000000E+00  0.00000000E+00
  0.00000000E+00  0.00000000E+00  0.00000000E+00
  0.00000000E+00  0.00000000E+00  0.00000000E+00
  0.00000000E+00  0.00000000E+00  0.00000000E+00
  0.00000000E+00  0.00000000E+00  0.00000000E+00
  0.00000000E+00  0.00000000E+00  0.00000000E+00
  0.00000000E+00  0.00000000E+00  0.00000000E+00
  0.00000000E+00  0.00000000E+00  0.00000000E+00
  0.00000000E+00  0.00000000E+00  0.00000000E+00
  0.00000000E+00  0.00000000E+00  0.00000000E+00
  0.00000000E+00  0.00000000E+00  0.00000000E+00
  0.00000000E+00  0.00000000E+00  0.00000000E+00
  0.00000000E+00  0.00000000E+00  0.00000000E+00
  0.00000000E+00  0.00000000E+00  0.00000000E+00
  0.00000000E+00  0.00000000E+00  0.00000000E+00
  0.00000000E+00  0.00000000E+00  0.00000000E+00
  0.00000000E+00  0.00000000E+00  0.00000000E+00
  0.00000000E+00  0.00000000E+00  0.00000000E+00
  0.00000000E+00  0.00000000E+00  0.00000000E+00
  0.00000000E+00  0.00000000E+00  0.00000000E+00
  0.00000000E+00  0.00000000E+00  0.00000000E+00
  0.00000000E+00  0.00000000E+00  0.00000000E+00
  0.00000000E+00  0.00000000E+00  0.00000000E+00
  0.00000000E+00  0.00000000E+00  0.00000000E+00
  0.00000000E+00  0.00000000E+00  0.00000000E+00
  0.00000000E+00  0.00000000E+00  0.00000000E+00
  0.00000000E+00  0.00000000E+00  0.00000000E+00
  0.00000000E+00  0.00000000E+00  0.00000000E+00
  0.00000000E+00  0.00000000E+00  0.00000000E+00
  0.00000000E+00  0.00000000E+00  0.00000000E+00
  0.00000000E+00  0.00000000E+00  0.00000000E+00
  0.00000000E+00  0.00000000E+00  0.00000000E+00
  0.00000000E+00  0.00000000E+00  0.00000000E+00
  0.00000000E+00  0.00000000E+00  0.00000000E+00
  0.00000000E+00  0.00000000E+00  0.00000000E+00
  0.00000000E+00  0.00000000E+00  0.00000000E+00
  0.00000000E+00  0.00000000E+00  0.00000000E+00
  0.00000000E+00  0.00000000E+00  0.00000000E+00
  0.00000000E+00  0.00000000E+00  0.00000000E+00
  0.00000000E+00  0.00000000E+00  0.00000000E+00
  0.00000000E+00  0.00000000E+00  0.00000000E+00
  0.00000000E+00  0.00000000E+00  0.00000000E+00
  0.00000000E+00  0.00000000E+00  0.00000000E+00
  0.00000000E+00  0.00000000E+00  0.00000000E+00
  0.00000000E+00  0.00000000E+00  0.00000000E+00
  0.00000000E+00  0.00000000E+00  0.00000000E+00
  0.00000000E+00  0.00000000E+00  0.00000000E+00
  0.00000000E+00  0.00000000E+00  0.00000000E+00
  0.00000000E+00  0.00000000E+00  0.00000000E+00
  0.00000000E+00  0.00000000E+00  0.00000000E+00
  0.00000000E+00  0.00000000E+00  0.00000000E+00
  0.00000000E+00  0.00000000E+00  0.00000000E+00
  0.00000000E+00  0.00000000E+00  0.00000000E+00
  0.00000000E+00  0.00000000E+00  0.00000000E+00
  0.00000000E+00  0.00000000E+00  0.00000000E+00
  0.00000000E+00  0.00000000E+00  0.00000000E+00
  0.00000000E+00  0.00000000E+00  0.00000000E+00
  0.00000000E+00  0.00000000E+00  0.00000000E+00
  0.00000000E+00  0.00000000E+00  0.00000000E+00
  0.00000000E+00  0.00000000E+00  0.00000000E+00
  0.00000000E+00  0.00000000E+00  0.00000000E+00
  0.00000000E+00  0.00000000E+00  0.00000000E+00
  0.00000000E+00  0.00000000E+00  0.00000000E+00
  0.00000000E+00  0.00000000E+00  0.00000000E+00
  0.00000000E+00  0.00000000E+00  0.00000000E+00
  0.00000000E+00  0.00000000E+00  0.00000000E+00
  0.00000000E+00  0.00000000E+00  0.00000000E+00
  0.00000000E+00  0.00000000E+00  0.00000000E+00
  0.00000000E+00  0.00000000E+00  0.00000000E+00
  0.00000000E+00  0.00000000E+00  0.00000000E+00
  0.00000000E+00  0.00000000E+00  0.00000000E+00
  0.00000000E+00  0.00000000E+00  0.00000000E+00
  0.00000000E+00  0.00000000E+00  0.00000000E+00
  0.00000000E+00  0.00000000E+00  0.00000000E+00
  0.00000000E+00  0.00000000E+00  0.00000000E+00
  0.00000000E+00  0.00000000E+00  0.00000000E+00
  0.00000000E+00  0.00000000E+00  0.00000000E+00
  0.00000000E+00  0.00000000E+00  0.00000000E+00
  0.00000000E+00  0.00000000E+00  0.00000000E+00
  0.00000000E+00  0.00000000E+00  0.00000000E+00
  0.00000000E+00  0.00000000E+00  0.00000000E+00
  0.00000000E+00  0.00000000E+00  0.00000000E+00
  0.00000000E+00  0.00000000E+00  0.00000000E+00
  0.00000000E+00  0.00000000E+00  0.00000000E+00
  0.00000000E+00  0.00000000E+00  0.00000000E+00
  0.00000000E+00  0.00000000E+00  0.00000000E+00
  0.00000000E+00  0.00000000E+00  0.00000000E+00
  0.00000000E+00  0.00000000E+00  0.00000000E+00
  0.00000000E+00  0.00000000E+00  0.00000000E+00
  0.00000000E+00  0.00000000E+00  0.00000000E+00
  0.00000000E+00  0.00000000E+00  0.00000000E+00
  0.00000000E+00  0.00000000E+00  0.00000000E+00
  0.00000000E+00  0.00000000E+00  0.00000000E+00
  0.00000000E+00  0.00000000E+00  0.00000000E+00
  0.00000000E+00  0.00000000E+00  0.00000000E+00
  0.00000000E+00  0.00000000E+00  0.00000000E+00
  0.00000000E+00  0.00000000E+00  0.00000000E+00
  0.00000000E+00  0.00000000E+00  0.00000000E+00
  0.00000000E+00  0.00000000E+00  0.00000000E+00
  0.00000000E+00  0.00000000E+00  0.00000000E+00
  0.00000000E+00  0.00000000E+00  0.00000000E+00
  0.00000000E+00  0.00000000E+00  0.00000000E+00
  0.00000000E+00  0.00000000E+00  0.00000000E+00
  0.00000000E+00  0.00000000E+00  0.00000000E+00
  0.00000000E+00  0.00000000E+00  0.00000000E+00
  0.00000000E+00  0.00000000E+00  0.00000000E+00
  0.00000000E+00  0.00000000E+00  0.00000000E+00
  0.00000000E+00  0.00000000E+00  0.00000000E+00
  0.00000000E+00  0.00000000E+00  0.00000000E+00
  0.00000000E+00  0.00000000E+00  0.00000000E+00
  0.00000000E+00  0.00000000E+00  0.00000000E+00
  0.00000000E+00  0.00000000E+00  0.00000000E+00
  0.00000000E+00  0.00000000E+00  0.00000000E+00
