ADDGRID = True
ALGO = Fast
EDIFF = 1e-06
EDIFFG = -0.01
ENCUT = 520
IBRION = 2
ISIF = 2
ISMEAR = 0
ISPIN = 2
ISYM = 0
LAECHG = True
LASPH = True
LCHARG = True
LMIXTAU = True
LORBIT = 11
LPLANE = True
LREAL = Auto
LVHAR = True
LVTOT = True
LWAVE = False
MAGMOM = 256*0.6
METAGGA = R2scan
NCORE = 16
NELECT = 1222 # 1*95+11*33+6*128-4
NELM = 200
NELMIN = 4
NSIM = 4
NSW = 50
PREC = Accurate
SIGMA = 0.05
SYMPREC = 1e-09
SYSTEM = Li3TaO4_as_Ta_on_Li_4
