Li63 Nb65 O192                          
   1.00000000000000     
    15.1469600000000000   -0.0012470000000000   -0.0011610000000000
     1.0576070000000000   15.1097420000000007   -0.0009680000000000
     1.0576360000000000    0.9859670000000000   15.0777149999999995
   Li   Nb   O 
    63    65   192
Direct
  0.2484862635309426  0.2486836546210824  0.2484554872804239
  0.2490016737005689  0.2494989597980961  0.7511418271571202
  0.2501398751594053  0.7504807418889996  0.2498470275083022
  0.2495077736997331  0.7504080522085275  0.7505224673912849
  0.7514052306925620  0.2504581020972694  0.2499823787033648
  0.7509303927860671  0.2495636527381606  0.7519570693086095
  0.7505428857304040  0.7502808807710792  0.2498786195595244
  0.7503442031770646  0.7501302147964068  0.7505919551197948
  0.0002633765733790  0.2500160803183888  0.0004388832458773
  0.9992592272749192  0.2491086228149015  0.5003908358980169
  0.0001718336664993  0.7501712848528257  0.0001719989055573
  0.0004381058894580  0.7502630830721557  0.5000172269060599
  0.4991091991080552  0.2503888680748574  0.9992593830514522
  0.5000167466249010  0.7504372898084739  0.0002637161468684
  0.5003905085984499  0.7492586970442829  0.4991096346990886
  0.2498466334427363  0.0001382996147541  0.0004820064396824
  0.2484548045424830  0.9984861379576984  0.4986855362296723
  0.2498782912945927  0.5005426645120110  0.0002818742961992
  0.2499819480189700  0.5014041775839786  0.5004594945852148
  0.7505223705925346  0.9995067496869439  0.0004095430672564
  0.7511409395178816  0.9990019110707209  0.4995000139754637
  0.7505917918573246  0.5003440347301122  0.0001310541824893
  0.7519566343693782  0.5009302366247184  0.4995641290827493
  0.0004817069666458  0.9998455951050147  0.2501400549288064
  0.0002805009310052  0.9998780387280348  0.7505432254444173
  0.0004094293998804  0.5005214496578461  0.2495075737517638
  0.0001305496260429  0.5005911663968163  0.7503449623811136
  0.4986848929909655  0.9984543031617363  0.2484865381901429
  0.5004595708142148  0.9999820314749570  0.7514043353636737
  0.4994995522816339  0.5011397847780970  0.2490024164134823
  0.4995639347523380  0.5019563133813065  0.7509306902078308
  0.0004287726630707  0.9999573009051659  0.0002080071188146
  0.0002581914293742  0.0001318363360241  0.4998539589029036
  0.0002195563085934  0.5002520760767766  0.0000879542163830
  0.9999391573560104  0.5012372830138219  0.5002751040466791
  0.4998232092949522  0.9994505801362834  0.9997231798043273
  0.4994335868219721  0.9989597281190754  0.4973510874801974
  0.4998630661282775  0.5004843693237930  0.0008176800441149
  0.5000882689365724  0.5028059698509040  0.4998871446841306
  0.2499441319684621  0.9999442105743626  0.2499430958910835
  0.2482620052141371  0.9982264169976958  0.7522380766528300
  0.2482260806377425  0.5022389879692213  0.2482619337292462
  0.2499256884418486  0.4999474637396091  0.7502366778781564
  0.7522393584818374  0.9982621221387262  0.2482251947821013
  0.7502363909998735  0.9999246668677557  0.7499463895335694
  0.7499477482814285  0.5002376420001724  0.2499242077343240
  0.7507407644160935  0.5007402690039200  0.7507394301567061
  0.9997243156054481  0.2498227765106833  0.2494492068432947
  0.0008183452646477  0.2498626961025607  0.7504838463243431
  0.0002086265532526  0.7504290326552550  0.2499565054119230
  0.0000884043811666  0.7502201097052890  0.7502506624102736
  0.4973516565945033  0.2494351693035242  0.2489591035368690
  0.4998873043304926  0.2500888070559029  0.7528060129350536
  0.4998542904426913  0.7502586992573157  0.2501311952939886
  0.5002761307137220  0.7499385297410299  0.7512367027828759
  0.2501321054079355  0.2498544057517336  0.0002577539675173
  0.2489594135795912  0.2473516369661226  0.4994337091924592
  0.2499576696936998  0.7502085724068408  0.0004280561431145
  0.2494500567288469  0.7497238542717568  0.4998220387288370
  0.7512377568174458  0.2502763373115542  0.9999378000754504
  0.7528055282077304  0.2498868928713804  0.5000878220752369
  0.7502513839551739  0.7500886577146630  0.0002195910550284
  0.7504840456596042  0.7508183661620293  0.4998622933999926
  0.5048493328231132  0.2548495315338002  0.5048495943495226
  0.1089472234574487  0.1087772790863895  0.1088099354812826
  0.1083916242623886  0.1086869898989136  0.6090111322417968
  0.1085745634271618  0.6090573844293772  0.1085182571717880
  0.1087899280722908  0.6091599365982532  0.6089147677811297
  0.6081861325182061  0.1097465855227568  0.1052764583224146
  0.6093152675445594  0.1053212836652264  0.6071556758807333
  0.6087291637867054  0.6090135221254229  0.1088921913643119
  0.6095117564723225  0.6096195178164763  0.6089789068661702
  0.3584274277428889  0.1084246953027233  0.3584251733898540
  0.3587115041025726  0.1085108618747270  0.8593461257424835
  0.3585137616442680  0.6093452665227588  0.3587096735143191
  0.3586050111388630  0.6088305320761833  0.8591023210574562
  0.8593482854508210  0.1087089693346286  0.3585116189170776
  0.8591040002963553  0.1086025781825199  0.8588317190255665
  0.8588329001680961  0.6091019554532267  0.3586033240403381
  0.8589040057588022  0.6089020553963849  0.8589020403007197
  0.1052794049875914  0.3581833797624654  0.3597473879156539
  0.1088937409455539  0.3587261647938647  0.8590139293062933
  0.1088118103236155  0.8589446577489781  0.3587782957365135
  0.1085202419666587  0.8585715693167018  0.8590584075251897
  0.6071582741580457  0.3593136122038345  0.3553213436303437
  0.6089806462252056  0.3595089154153968  0.8596203511801903
  0.6090124254165374  0.8583902662958423  0.3586880947960296
  0.6089160999206698  0.8587873280387655  0.8591611182696965
  0.3586897802825533  0.3590096620231620  0.1083905654363733
  0.3553226693480767  0.3571546772204499  0.6093148319593027
  0.3587804373196875  0.8588094230502676  0.1089441321978910
  0.3597491061980875  0.8552763855888372  0.6081844392142273
  0.8591630590944774  0.3589138615873608  0.1087881433918483
  0.8596221411199920  0.3589778028177619  0.6095094459129200
  0.8590605072807520  0.8585182764224086  0.1085720546172055
  0.8590155083040898  0.8588911612556274  0.6087273857815489
  0.3508733904292995  0.3612722126197951  0.3561661799204217
  0.3584470965633599  0.3590467485884687  0.8588428875138092
  0.3587969719049866  0.8588035829375329  0.3587208282317960
  0.3585923457103277  0.8588198729681977  0.8591755514924273
  0.8573917681821897  0.3594137030511533  0.3586652839812530
  0.8592280150759066  0.3588410376254743  0.8590840458290643
  0.8590313539335668  0.8585823033563713  0.3587554173487320
  0.8587475175032750  0.8587762610862200  0.8588272383606466
  0.1087989324008163  0.3589490602904775  0.1087708318963294
  0.1078661747727594  0.3594516456171917  0.6088381519123516
  0.1088283688659288  0.8588266719202338  0.1088282880211580
  0.1087704409649177  0.8587972525950960  0.6089516044084888
  0.6094541318620372  0.3588352815526790  0.1078665656021158
  0.6121960562443363  0.3621943963677197  0.6121964395170139
  0.6089513705952925  0.8587693779230037  0.1087993608404005
  0.6088378803133807  0.8578644719416175  0.6094544383026346
  0.3587213660260389  0.1087944406600343  0.1088050027989809
  0.3561649049544755  0.1008729631441909  0.6112752663575520
  0.3587551858977989  0.6090293366812887  0.1085846458717157
  0.3586653901716517  0.6073897673839141  0.6094170006538420
  0.8591755932972518  0.1085907139079865  0.1088220219330935
  0.8588417266973636  0.1084454397657666  0.6090493564066293
  0.8588270257531860  0.6087459232205532  0.1087784541025911
  0.8590842576197488  0.6092259057159808  0.6088438245388517
  0.1088049643772564  0.1087190930736028  0.3587975675076649
  0.1085846083189708  0.1087528234157347  0.8590318142344699
  0.1088218458620318  0.6091734785513481  0.3585928097623778
  0.1087781552441385  0.6088248478276626  0.8587474618185880
  0.6112751550001718  0.1061632582882197  0.3508738248280778
  0.6094166740459244  0.1086621679874042  0.8573909857818833
  0.6090491698441269  0.6088403552591402  0.3584477580692962
  0.6088432289496382  0.6090813676719904  0.8592281329527225
  0.3139826235803298  0.2259965365178687  0.3797389105432316
  0.3147229018838402  0.2266232625541917  0.8791940109878382
  0.3141936578293567  0.7267204475475353  0.3795758104353837
  0.3146728959750433  0.7265895451103717  0.8797584245242831
  0.8148000858289492  0.2262049557666117  0.3794393821008271
  0.8147074888296544  0.2265919316251583  0.8791556730171735
  0.8143264696735315  0.7266280355867281  0.3795165969679601
  0.8145478944839510  0.7266575558787594  0.8795223412136295
  0.0646077855980849  0.2265504644936556  0.1294013840532173
  0.0646958619768938  0.2266882004889652  0.6294083282699319
  0.0643589104431967  0.7266437942394077  0.1295565417266289
  0.0643025939138155  0.7267250243169556  0.6295904956444005
  0.5643990685954421  0.2263436691007001  0.1299831882177500
  0.5608597642108037  0.2291158768181063  0.6322866591369589
  0.5645571583480233  0.7264429783576816  0.1300020625432126
  0.5639444468178141  0.7271672071405320  0.6297388612899226
  0.3143402396501358  0.4765828091913065  0.1294674103520350
  0.3148977554915646  0.4772696602890178  0.6290363811769595
  0.3144947340246347  0.9765020159543951  0.1295829840167713
  0.3135498720392036  0.9753238426359729  0.6300565834835865
  0.8146063951754812  0.4765224419696779  0.1296956705590091
  0.8152130341120269  0.4766711914726969  0.6297743858059661
  0.8146544604926973  0.9765405412411994  0.1289320097271514
  0.8138989474065426  0.9769328101684565  0.6289832296386990
  0.0641632601914637  0.4763485062287884  0.3798301748879567
  0.0648478781760673  0.4764965618749386  0.8795444601627835
  0.0642199814959596  0.9765750266898579  0.3794814246099421
  0.0645670223085446  0.9764980939076153  0.8795632825449786
  0.5639940541335235  0.4751613270912287  0.3810843135845587
  0.5647619611310333  0.4768827878152493  0.8809956885851449
  0.5643264964881070  0.9762499996885126  0.3788522239911885
  0.5644379476239436  0.9765623007393032  0.8797249710590691
  0.3788509409797101  0.3143288548642786  0.2262501248344222
  0.3810857300106676  0.3139945000833961  0.7251606951587277
  0.3794818013514671  0.8142211476533490  0.2265749251386069
  0.3798306878661748  0.8141639196719055  0.7263477481406468
  0.8797250469243636  0.3144394991593771  0.2265629948157510
  0.8809956722058274  0.3147629545431343  0.7268825562223427
  0.8795637831210357  0.8145683725554846  0.2264979174665243
  0.8795464879697832  0.8148494626654212  0.7264961629970372
  0.1299837894861753  0.3144011661068404  0.4763431105253915
  0.1300020352468607  0.3145582711816246  0.9764427001113276
  0.1294021459546855  0.8146099073705173  0.4765506610144499
  0.1295567287099360  0.8143593307547690  0.9766437275821502
  0.6322842487834208  0.3108591149021791  0.4791159920381105
  0.6297391603700362  0.3139451929666990  0.9771671684927483
  0.6294086096783147  0.8146968978978606  0.4766873816905175
  0.6295908552073755  0.8143037911148383  0.9767249511956209
  0.3797398294498038  0.0639844775397904  0.4759970342442088
  0.3795777933489362  0.0641952752571342  0.9767197392958806
  0.3794405855345744  0.5648025187473777  0.4762048327306445
  0.3795182006596463  0.5643270157857145  0.9766280892032029
  0.8791945151273666  0.0647239465606901  0.4766229452273549
  0.8797585277905569  0.0646747415784645  0.9765898212311797
  0.8791561471741716  0.5647099901056336  0.4765915301652228
  0.8795218971941878  0.5645515376946832  0.9766568280565693
  0.1295838523798309  0.0644960752202195  0.2265021029366778
  0.1294677124352646  0.0643414721707174  0.7265824109654702
  0.1289327978180097  0.5646551249118232  0.2265402955067657
  0.1296962404478279  0.5646076454173752  0.7265220202225109
  0.6300564698222857  0.0635505986802869  0.2253246471081454
  0.6290369341027429  0.0648963930021722  0.7272702597354552
  0.6289830133958247  0.5638996680230690  0.2269329436749672
  0.6297752457476165  0.5652139524629192  0.7266707102983574
  0.2253236622256480  0.3800586028098394  0.3135509516038866
  0.2269325543093430  0.3789841382660413  0.8139001543098203
  0.2265019904005570  0.8795848786665204  0.3144956455592620
  0.2265399073402108  0.8789337190161461  0.8146555680417791
  0.7272689527594665  0.3790397466689228  0.3148974031291942
  0.7266703088887141  0.3797768651291094  0.8152147239099463
  0.7265817802505907  0.8794687744943417  0.3143414236768862
  0.7265213457704789  0.8796970130910751  0.8146081024824383
  0.4766870464212687  0.3794097755861046  0.0646970421978210
  0.4791155117816643  0.3822847328616987  0.5608592955916976
  0.4765502726461150  0.8794028901043376  0.0646098414966545
  0.4763429197263633  0.8799846268789082  0.5644009904639162
  0.9767243632456868  0.3795918837919032  0.0643038142643277
  0.9771667624532938  0.3797401758663739  0.5639451891275087
  0.9766439221303003  0.8795579472182382  0.0643594685088260
  0.9764423599047873  0.8800030210236471  0.5645586387126968
  0.2265746529837713  0.1294831496213078  0.0642215873041536
  0.2262494670881168  0.1288517274344727  0.5643291961987487
  0.2264976498934601  0.6295638191427457  0.0645681019241380
  0.2265628045638266  0.6297262273806865  0.5644419822884430
  0.7263474672111343  0.1298317730959013  0.0641650294484322
  0.7251597317144771  0.1310862979396248  0.5639950768430779
  0.7264957777301362  0.6295471428149497  0.0648497950292324
  0.7268824390895645  0.6309963570154480  0.5647631707156009
  0.4759965684634011  0.1297431805635227  0.3139873651918847
  0.4762045093603788  0.1294420757813910  0.8148024041281019
  0.4766223076707305  0.6291959595268395  0.3147253813700743
  0.4765912600831328  0.6291563824019093  0.8147103134307088
  0.9767202285746137  0.1295783157603267  0.3141962924398385
  0.9766271102998942  0.1295181525511424  0.8143275934251548
  0.9765889328022084  0.6297609324940439  0.3146746454412863
  0.9766559128626682  0.6295231020595011  0.8145502751022207
  0.3138843214474463  0.1294541060846583  0.2263064583629273
  0.3137662797155940  0.1298017345806244  0.7265673986164813
  0.3144006926839964  0.6294905125250025  0.2264194906643979
  0.3147892193025683  0.6299835936902696  0.7264943602007676
  0.8141891814451796  0.1291671029310066  0.2265684321557302
  0.8141549242695092  0.1293096294701783  0.7265620518495197
  0.8145946334240577  0.6294603965966132  0.2266599885341307
  0.8147677210929984  0.6296246462428101  0.7266097904527484
  0.0642510203110547  0.1294985840141294  0.4765265878220859
  0.0643140868097873  0.1295736248291774  0.9766027156482906
  0.0646777912909400  0.6294784978128263  0.4764758055653147
  0.0644669202969013  0.6295881173039533  0.9765442625754090
  0.5624038777597988  0.1284748468486967  0.4736593398852165
  0.5641470493748812  0.1295584038743627  0.9765470508634237
  0.5649048992906884  0.6291158136733515  0.4765468468422043
  0.5646835001060069  0.6300136069792401  0.9769487680505264
  0.3131675486522596  0.3792391547434733  0.4762724431668204
  0.3145699736157823  0.3798749893643176  0.9762909135312583
  0.3144191438024464  0.8796857572688950  0.4763865180308144
  0.3144732235922376  0.8797986595621268  0.9766017976548369
  0.8146690288860583  0.3791375362415081  0.4770377370764649
  0.8145896461747171  0.3793795073606532  0.9768042832145483
  0.8144706725585706  0.8792520294120649  0.4765408226752470
  0.8144827714497609  0.8794669670632516  0.9765260216225045
  0.0643128530908399  0.3795917251772423  0.2264169269499519
  0.0643228759936108  0.3799082255379460  0.7264588950144883
  0.0644905811596033  0.8794507157145190  0.2265738013196028
  0.0645062993727947  0.8796206349832758  0.7266104450855622
  0.5650341289833776  0.3807223991145747  0.2264006412255739
  0.5647632295953144  0.3829314576123011  0.7280437180593893
  0.5644983109411896  0.8792458851006941  0.2265570836026285
  0.5645467346253099  0.8798637858549370  0.7265702035085013
  0.2265567580391306  0.3144980728072326  0.1292460033419900
  0.2263993931356367  0.3150339981981887  0.6307249371442651
  0.2265739518333731  0.8144894104325360  0.1294508909924943
  0.2264168262116115  0.8143126588865144  0.6295919965147903
  0.7265697972091374  0.3145465319750258  0.1298643139557569
  0.7280433577175884  0.3147641581502469  0.6329322422949488
  0.7266108624542724  0.8145061430451221  0.1296206839745082
  0.7264590828294359  0.8143228251726526  0.6299087359065112
  0.4736588556533192  0.3124033368307977  0.3784744810237726
  0.4765464843054446  0.3149042172593042  0.8791163895192753
  0.4765260198575092  0.8142508945459923  0.3794986717183235
  0.4764753698647937  0.8146760705199299  0.8794791324127047
  0.9765465692465369  0.3141463631131671  0.3795617096119628
  0.9769481332808425  0.3146832535878517  0.8800143905985891
  0.9766027455864545  0.8143138365164972  0.3795739280690000
  0.9765442129096940  0.8144666045357525  0.8795885008098097
  0.2263062381431595  0.0638831807094675  0.3794570692224895
  0.2264194716609325  0.0644015725884017  0.8794921200891466
  0.2265684354130997  0.5641890415030772  0.3791676915371696
  0.2266596916626895  0.5645940664864426  0.8794609060168739
  0.7265676813790449  0.0637659037480489  0.3798022777659682
  0.7264946143615703  0.0647887317492106  0.8799834222336571
  0.7265620146856833  0.5641548108952676  0.3793099155408228
  0.7266103777373445  0.5647672214699853  0.8796252005720078
  0.4763869891723189  0.0644182929750983  0.1296866201295259
  0.4762719810798046  0.0631689623751868  0.6292392700841702
  0.4765409738397395  0.5644703502994304  0.1292524303684104
  0.4770375715104507  0.5646697977740160  0.6291379646310062
  0.9766021249489540  0.0644726484669320  0.1297991514890811
  0.9762902887183103  0.0645697355514940  0.6298753724776205
  0.9765261606579401  0.5644821601386880  0.1294677154177890
  0.9768042166617619  0.5645893442484180  0.6293802601439893
  0.1296857449572570  0.2263875658923595  0.3144185946621221
  0.1292517044521730  0.2265414872974247  0.8144703696898148
  0.1297988989232692  0.7266023962874257  0.3144725608534316
  0.1294669437196845  0.7265263522863634  0.8144821237410014
  0.6292394880331429  0.2262721081114876  0.3131688235268726
  0.6291371785852320  0.2270376703600405  0.8146709190493624
  0.6298749879747234  0.7262913237716830  0.3145697648393480
  0.6293792319350828  0.7268037358033013  0.8145884007058370
  0.3794980943180732  0.2265270280702509  0.0642504345796340
  0.3784719454679646  0.2236595031395154  0.5624033011886880
  0.3795739614265088  0.7266022730307569  0.0643136570997100
  0.3795612656244884  0.7265468088755966  0.5641455255835837
  0.8794784131572158  0.2264767708140241  0.0646772959243904
  0.8791158246324073  0.2265469230734780  0.5649042809710068
  0.8795883185764453  0.7265449949357432  0.0644669143277241
  0.8800137676367115  0.7269487387400275  0.5646828255283793
  0.1296187800937147  0.4766105705324009  0.0645037841041187
  0.1298636980175090  0.4765705888453979  0.5645462813067041
  0.1294519426821523  0.9765744643194481  0.0644898283221380
  0.1292454363092261  0.9765572504219051  0.5644977516794398
  0.6299080728932509  0.4764592831390502  0.0643237488677499
  0.6329311701981339  0.4780435991652467  0.5647627189442943
  0.6295930461799912  0.9764174937434618  0.0643128360582423
  0.6307239259216004  0.9764001744019950  0.5650331418075751
  0.3798016003197873  0.4765681511814961  0.3137661090362158
  0.3793100528329134  0.4765621850429866  0.8141547777162899
  0.3794567720062005  0.9763071598985320  0.3138834586533363
  0.3791671144890500  0.9765688454425359  0.8141890682645965
  0.8799838793902879  0.4764947903276848  0.3147887101703120
  0.8796249084357868  0.4766105545274328  0.8147674346024871
  0.8794918677142718  0.9764200222533006  0.3144015762236236
  0.8794602874749060  0.9766603383660808  0.8145943649249077
 
  0.00000000E+00  0.00000000E+00  0.00000000E+00
  0.00000000E+00  0.00000000E+00  0.00000000E+00
  0.00000000E+00  0.00000000E+00  0.00000000E+00
  0.00000000E+00  0.00000000E+00  0.00000000E+00
  0.00000000E+00  0.00000000E+00  0.00000000E+00
  0.00000000E+00  0.00000000E+00  0.00000000E+00
  0.00000000E+00  0.00000000E+00  0.00000000E+00
  0.00000000E+00  0.00000000E+00  0.00000000E+00
  0.00000000E+00  0.00000000E+00  0.00000000E+00
  0.00000000E+00  0.00000000E+00  0.00000000E+00
  0.00000000E+00  0.00000000E+00  0.00000000E+00
  0.00000000E+00  0.00000000E+00  0.00000000E+00
  0.00000000E+00  0.00000000E+00  0.00000000E+00
  0.00000000E+00  0.00000000E+00  0.00000000E+00
  0.00000000E+00  0.00000000E+00  0.00000000E+00
  0.00000000E+00  0.00000000E+00  0.00000000E+00
  0.00000000E+00  0.00000000E+00  0.00000000E+00
  0.00000000E+00  0.00000000E+00  0.00000000E+00
  0.00000000E+00  0.00000000E+00  0.00000000E+00
  0.00000000E+00  0.00000000E+00  0.00000000E+00
  0.00000000E+00  0.00000000E+00  0.00000000E+00
  0.00000000E+00  0.00000000E+00  0.00000000E+00
  0.00000000E+00  0.00000000E+00  0.00000000E+00
  0.00000000E+00  0.00000000E+00  0.00000000E+00
  0.00000000E+00  0.00000000E+00  0.00000000E+00
  0.00000000E+00  0.00000000E+00  0.00000000E+00
  0.00000000E+00  0.00000000E+00  0.00000000E+00
  0.00000000E+00  0.00000000E+00  0.00000000E+00
  0.00000000E+00  0.00000000E+00  0.00000000E+00
  0.00000000E+00  0.00000000E+00  0.00000000E+00
  0.00000000E+00  0.00000000E+00  0.00000000E+00
  0.00000000E+00  0.00000000E+00  0.00000000E+00
  0.00000000E+00  0.00000000E+00  0.00000000E+00
  0.00000000E+00  0.00000000E+00  0.00000000E+00
  0.00000000E+00  0.00000000E+00  0.00000000E+00
  0.00000000E+00  0.00000000E+00  0.00000000E+00
  0.00000000E+00  0.00000000E+00  0.00000000E+00
  0.00000000E+00  0.00000000E+00  0.00000000E+00
  0.00000000E+00  0.00000000E+00  0.00000000E+00
  0.00000000E+00  0.00000000E+00  0.00000000E+00
  0.00000000E+00  0.00000000E+00  0.00000000E+00
  0.00000000E+00  0.00000000E+00  0.00000000E+00
  0.00000000E+00  0.00000000E+00  0.00000000E+00
  0.00000000E+00  0.00000000E+00  0.00000000E+00
  0.00000000E+00  0.00000000E+00  0.00000000E+00
  0.00000000E+00  0.00000000E+00  0.00000000E+00
  0.00000000E+00  0.00000000E+00  0.00000000E+00
  0.00000000E+00  0.00000000E+00  0.00000000E+00
  0.00000000E+00  0.00000000E+00  0.00000000E+00
  0.00000000E+00  0.00000000E+00  0.00000000E+00
  0.00000000E+00  0.00000000E+00  0.00000000E+00
  0.00000000E+00  0.00000000E+00  0.00000000E+00
  0.00000000E+00  0.00000000E+00  0.00000000E+00
  0.00000000E+00  0.00000000E+00  0.00000000E+00
  0.00000000E+00  0.00000000E+00  0.00000000E+00
  0.00000000E+00  0.00000000E+00  0.00000000E+00
  0.00000000E+00  0.00000000E+00  0.00000000E+00
  0.00000000E+00  0.00000000E+00  0.00000000E+00
  0.00000000E+00  0.00000000E+00  0.00000000E+00
  0.00000000E+00  0.00000000E+00  0.00000000E+00
  0.00000000E+00  0.00000000E+00  0.00000000E+00
  0.00000000E+00  0.00000000E+00  0.00000000E+00
  0.00000000E+00  0.00000000E+00  0.00000000E+00
  0.00000000E+00  0.00000000E+00  0.00000000E+00
  0.00000000E+00  0.00000000E+00  0.00000000E+00
  0.00000000E+00  0.00000000E+00  0.00000000E+00
  0.00000000E+00  0.00000000E+00  0.00000000E+00
  0.00000000E+00  0.00000000E+00  0.00000000E+00
  0.00000000E+00  0.00000000E+00  0.00000000E+00
  0.00000000E+00  0.00000000E+00  0.00000000E+00
  0.00000000E+00  0.00000000E+00  0.00000000E+00
  0.00000000E+00  0.00000000E+00  0.00000000E+00
  0.00000000E+00  0.00000000E+00  0.00000000E+00
  0.00000000E+00  0.00000000E+00  0.00000000E+00
  0.00000000E+00  0.00000000E+00  0.00000000E+00
  0.00000000E+00  0.00000000E+00  0.00000000E+00
  0.00000000E+00  0.00000000E+00  0.00000000E+00
  0.00000000E+00  0.00000000E+00  0.00000000E+00
  0.00000000E+00  0.00000000E+00  0.00000000E+00
  0.00000000E+00  0.00000000E+00  0.00000000E+00
  0.00000000E+00  0.00000000E+00  0.00000000E+00
  0.00000000E+00  0.00000000E+00  0.00000000E+00
  0.00000000E+00  0.00000000E+00  0.00000000E+00
  0.00000000E+00  0.00000000E+00  0.00000000E+00
  0.00000000E+00  0.00000000E+00  0.00000000E+00
  0.00000000E+00  0.00000000E+00  0.00000000E+00
  0.00000000E+00  0.00000000E+00  0.00000000E+00
  0.00000000E+00  0.00000000E+00  0.00000000E+00
  0.00000000E+00  0.00000000E+00  0.00000000E+00
  0.00000000E+00  0.00000000E+00  0.00000000E+00
  0.00000000E+00  0.00000000E+00  0.00000000E+00
  0.00000000E+00  0.00000000E+00  0.00000000E+00
  0.00000000E+00  0.00000000E+00  0.00000000E+00
  0.00000000E+00  0.00000000E+00  0.00000000E+00
  0.00000000E+00  0.00000000E+00  0.00000000E+00
  0.00000000E+00  0.00000000E+00  0.00000000E+00
  0.00000000E+00  0.00000000E+00  0.00000000E+00
  0.00000000E+00  0.00000000E+00  0.00000000E+00
  0.00000000E+00  0.00000000E+00  0.00000000E+00
  0.00000000E+00  0.00000000E+00  0.00000000E+00
  0.00000000E+00  0.00000000E+00  0.00000000E+00
  0.00000000E+00  0.00000000E+00  0.00000000E+00
  0.00000000E+00  0.00000000E+00  0.00000000E+00
  0.00000000E+00  0.00000000E+00  0.00000000E+00
  0.00000000E+00  0.00000000E+00  0.00000000E+00
  0.00000000E+00  0.00000000E+00  0.00000000E+00
  0.00000000E+00  0.00000000E+00  0.00000000E+00
  0.00000000E+00  0.00000000E+00  0.00000000E+00
  0.00000000E+00  0.00000000E+00  0.00000000E+00
  0.00000000E+00  0.00000000E+00  0.00000000E+00
  0.00000000E+00  0.00000000E+00  0.00000000E+00
  0.00000000E+00  0.00000000E+00  0.00000000E+00
  0.00000000E+00  0.00000000E+00  0.00000000E+00
  0.00000000E+00  0.00000000E+00  0.00000000E+00
  0.00000000E+00  0.00000000E+00  0.00000000E+00
  0.00000000E+00  0.00000000E+00  0.00000000E+00
  0.00000000E+00  0.00000000E+00  0.00000000E+00
  0.00000000E+00  0.00000000E+00  0.00000000E+00
  0.00000000E+00  0.00000000E+00  0.00000000E+00
  0.00000000E+00  0.00000000E+00  0.00000000E+00
  0.00000000E+00  0.00000000E+00  0.00000000E+00
  0.00000000E+00  0.00000000E+00  0.00000000E+00
  0.00000000E+00  0.00000000E+00  0.00000000E+00
  0.00000000E+00  0.00000000E+00  0.00000000E+00
  0.00000000E+00  0.00000000E+00  0.00000000E+00
  0.00000000E+00  0.00000000E+00  0.00000000E+00
  0.00000000E+00  0.00000000E+00  0.00000000E+00
  0.00000000E+00  0.00000000E+00  0.00000000E+00
  0.00000000E+00  0.00000000E+00  0.00000000E+00
  0.00000000E+00  0.00000000E+00  0.00000000E+00
  0.00000000E+00  0.00000000E+00  0.00000000E+00
  0.00000000E+00  0.00000000E+00  0.00000000E+00
  0.00000000E+00  0.00000000E+00  0.00000000E+00
  0.00000000E+00  0.00000000E+00  0.00000000E+00
  0.00000000E+00  0.00000000E+00  0.00000000E+00
  0.00000000E+00  0.00000000E+00  0.00000000E+00
  0.00000000E+00  0.00000000E+00  0.00000000E+00
  0.00000000E+00  0.00000000E+00  0.00000000E+00
  0.00000000E+00  0.00000000E+00  0.00000000E+00
  0.00000000E+00  0.00000000E+00  0.00000000E+00
  0.00000000E+00  0.00000000E+00  0.00000000E+00
  0.00000000E+00  0.00000000E+00  0.00000000E+00
  0.00000000E+00  0.00000000E+00  0.00000000E+00
  0.00000000E+00  0.00000000E+00  0.00000000E+00
  0.00000000E+00  0.00000000E+00  0.00000000E+00
  0.00000000E+00  0.00000000E+00  0.00000000E+00
  0.00000000E+00  0.00000000E+00  0.00000000E+00
  0.00000000E+00  0.00000000E+00  0.00000000E+00
  0.00000000E+00  0.00000000E+00  0.00000000E+00
  0.00000000E+00  0.00000000E+00  0.00000000E+00
  0.00000000E+00  0.00000000E+00  0.00000000E+00
  0.00000000E+00  0.00000000E+00  0.00000000E+00
  0.00000000E+00  0.00000000E+00  0.00000000E+00
  0.00000000E+00  0.00000000E+00  0.00000000E+00
  0.00000000E+00  0.00000000E+00  0.00000000E+00
  0.00000000E+00  0.00000000E+00  0.00000000E+00
  0.00000000E+00  0.00000000E+00  0.00000000E+00
  0.00000000E+00  0.00000000E+00  0.00000000E+00
  0.00000000E+00  0.00000000E+00  0.00000000E+00
  0.00000000E+00  0.00000000E+00  0.00000000E+00
  0.00000000E+00  0.00000000E+00  0.00000000E+00
  0.00000000E+00  0.00000000E+00  0.00000000E+00
  0.00000000E+00  0.00000000E+00  0.00000000E+00
  0.00000000E+00  0.00000000E+00  0.00000000E+00
  0.00000000E+00  0.00000000E+00  0.00000000E+00
  0.00000000E+00  0.00000000E+00  0.00000000E+00
  0.00000000E+00  0.00000000E+00  0.00000000E+00
  0.00000000E+00  0.00000000E+00  0.00000000E+00
  0.00000000E+00  0.00000000E+00  0.00000000E+00
  0.00000000E+00  0.00000000E+00  0.00000000E+00
  0.00000000E+00  0.00000000E+00  0.00000000E+00
  0.00000000E+00  0.00000000E+00  0.00000000E+00
  0.00000000E+00  0.00000000E+00  0.00000000E+00
  0.00000000E+00  0.00000000E+00  0.00000000E+00
  0.00000000E+00  0.00000000E+00  0.00000000E+00
  0.00000000E+00  0.00000000E+00  0.00000000E+00
  0.00000000E+00  0.00000000E+00  0.00000000E+00
  0.00000000E+00  0.00000000E+00  0.00000000E+00
  0.00000000E+00  0.00000000E+00  0.00000000E+00
  0.00000000E+00  0.00000000E+00  0.00000000E+00
  0.00000000E+00  0.00000000E+00  0.00000000E+00
  0.00000000E+00  0.00000000E+00  0.00000000E+00
  0.00000000E+00  0.00000000E+00  0.00000000E+00
  0.00000000E+00  0.00000000E+00  0.00000000E+00
  0.00000000E+00  0.00000000E+00  0.00000000E+00
  0.00000000E+00  0.00000000E+00  0.00000000E+00
  0.00000000E+00  0.00000000E+00  0.00000000E+00
  0.00000000E+00  0.00000000E+00  0.00000000E+00
  0.00000000E+00  0.00000000E+00  0.00000000E+00
  0.00000000E+00  0.00000000E+00  0.00000000E+00
  0.00000000E+00  0.00000000E+00  0.00000000E+00
  0.00000000E+00  0.00000000E+00  0.00000000E+00
  0.00000000E+00  0.00000000E+00  0.00000000E+00
  0.00000000E+00  0.00000000E+00  0.00000000E+00
  0.00000000E+00  0.00000000E+00  0.00000000E+00
  0.00000000E+00  0.00000000E+00  0.00000000E+00
  0.00000000E+00  0.00000000E+00  0.00000000E+00
  0.00000000E+00  0.00000000E+00  0.00000000E+00
  0.00000000E+00  0.00000000E+00  0.00000000E+00
  0.00000000E+00  0.00000000E+00  0.00000000E+00
  0.00000000E+00  0.00000000E+00  0.00000000E+00
  0.00000000E+00  0.00000000E+00  0.00000000E+00
  0.00000000E+00  0.00000000E+00  0.00000000E+00
  0.00000000E+00  0.00000000E+00  0.00000000E+00
  0.00000000E+00  0.00000000E+00  0.00000000E+00
  0.00000000E+00  0.00000000E+00  0.00000000E+00
  0.00000000E+00  0.00000000E+00  0.00000000E+00