Li64 Ta64 O192
1.0
15.033732 -0.006094 -0.005746
0.960663 15.003049 -0.005750
0.960608 0.900718 14.975929
Li Ta O
64 64 192
direct
0.389791 0.389791 0.389792 Li
0.389791 0.389791 0.889792 Li
0.389791 0.889791 0.389792 Li
0.389791 0.889791 0.889792 Li
0.889791 0.389791 0.389792 Li
0.889791 0.389791 0.889792 Li
0.889791 0.889791 0.389792 Li
0.889791 0.889791 0.889792 Li
0.139791 0.389791 0.139792 Li
0.139791 0.389791 0.639792 Li
0.139791 0.889791 0.139792 Li
0.139791 0.889791 0.639792 Li
0.639791 0.389791 0.139792 Li
0.639791 0.389791 0.639792 Li
0.639791 0.889791 0.139792 Li
0.639791 0.889791 0.639792 Li
0.389791 0.139791 0.139792 Li
0.389791 0.139791 0.639792 Li
0.389791 0.639791 0.139792 Li
0.389791 0.639791 0.639792 Li
0.889791 0.139791 0.139792 Li
0.889791 0.139791 0.639792 Li
0.889791 0.639791 0.139792 Li
0.889791 0.639791 0.639792 Li
0.139791 0.139791 0.389792 Li
0.139791 0.139791 0.889792 Li
0.139791 0.639791 0.389792 Li
0.139791 0.639791 0.889792 Li
0.639791 0.139791 0.389792 Li
0.639791 0.139791 0.889792 Li
0.639791 0.639791 0.389792 Li
0.639791 0.639791 0.889792 Li
0.139792 0.139792 0.139792 Li
0.139792 0.139792 0.639792 Li
0.139792 0.639791 0.139792 Li
0.139792 0.639791 0.639792 Li
0.639792 0.139792 0.139792 Li
0.639792 0.139792 0.639792 Li
0.639792 0.639792 0.139792 Li
0.639792 0.639791 0.639792 Li
0.389792 0.139792 0.389792 Li
0.389792 0.139792 0.889792 Li
0.389792 0.639792 0.389792 Li
0.389792 0.639792 0.889792 Li
0.889792 0.139792 0.389792 Li
0.889792 0.139792 0.889792 Li
0.889792 0.639792 0.389792 Li
0.889792 0.639792 0.889792 Li
0.139792 0.389792 0.389792 Li
0.139792 0.389792 0.889792 Li
0.139792 0.889792 0.389792 Li
0.139792 0.889792 0.889792 Li
0.639792 0.389792 0.389792 Li
0.639792 0.389792 0.889792 Li
0.639792 0.889791 0.389792 Li
0.639792 0.889792 0.889792 Li
0.389792 0.389791 0.139792 Li
0.389792 0.389792 0.639792 Li
0.389792 0.889792 0.139792 Li
0.389792 0.889792 0.639792 Li
0.889792 0.389792 0.139792 Li
0.889792 0.389792 0.639792 Li
0.889792 0.889791 0.139792 Li
0.889792 0.889791 0.639792 Li
0.248082 0.248082 0.248083 Ta
0.248082 0.248082 0.748083 Ta
0.248082 0.748082 0.248083 Ta
0.248082 0.748082 0.748083 Ta
0.748082 0.248082 0.248083 Ta
0.748082 0.248082 0.748083 Ta
0.748082 0.748082 0.248083 Ta
0.748082 0.748082 0.748083 Ta
0.498082 0.248082 0.498083 Ta
0.498082 0.248082 0.998083 Ta
0.498082 0.748082 0.498083 Ta
0.498082 0.748082 0.998083 Ta
0.998082 0.248082 0.498083 Ta
0.998082 0.248082 0.998083 Ta
0.998082 0.748082 0.498083 Ta
0.998082 0.748082 0.998083 Ta
0.248082 0.498082 0.498083 Ta
0.248082 0.498082 0.998083 Ta
0.248082 0.998082 0.498083 Ta
0.248082 0.998082 0.998083 Ta
0.748082 0.498082 0.498083 Ta
0.748082 0.498082 0.998083 Ta
0.748082 0.998082 0.498083 Ta
0.748082 0.998082 0.998083 Ta
0.498082 0.498082 0.248083 Ta
0.498082 0.498082 0.748083 Ta
0.498082 0.998082 0.248083 Ta
0.498082 0.998082 0.748083 Ta
0.998082 0.498082 0.248083 Ta
0.998082 0.498082 0.748083 Ta
0.998082 0.998082 0.248083 Ta
0.998082 0.998082 0.748083 Ta
0.498083 0.498082 0.498084 Ta
0.498083 0.498082 0.998084 Ta
0.498083 0.998082 0.498084 Ta
0.498083 0.998082 0.998084 Ta
0.998083 0.498082 0.498084 Ta
0.998083 0.498082 0.998084 Ta
0.998083 0.998082 0.498084 Ta
0.998083 0.998082 0.998084 Ta
0.248083 0.498082 0.248084 Ta
0.248083 0.498082 0.748084 Ta
0.248083 0.998082 0.248084 Ta
0.248083 0.998082 0.748084 Ta
0.748083 0.498082 0.248084 Ta
0.748083 0.498082 0.748084 Ta
0.748083 0.998082 0.248084 Ta
0.748083 0.998082 0.748084 Ta
0.498083 0.248082 0.248084 Ta
0.498083 0.248082 0.748084 Ta
0.498083 0.748082 0.248084 Ta
0.498083 0.748082 0.748084 Ta
0.998083 0.248082 0.248084 Ta
0.998083 0.248082 0.748084 Ta
0.998083 0.748082 0.248084 Ta
0.998083 0.748082 0.748084 Ta
0.248083 0.248082 0.498084 Ta
0.248083 0.248082 0.998084 Ta
0.248083 0.748082 0.498084 Ta
0.248083 0.748082 0.998084 Ta
0.748083 0.248082 0.498084 Ta
0.748083 0.248082 0.998084 Ta
0.748083 0.748082 0.498084 Ta
0.748083 0.748082 0.998084 Ta
0.208120 0.368440 0.270666 O
0.208121 0.368440 0.770666 O
0.208121 0.868440 0.270666 O
0.208120 0.868440 0.770666 O
0.708120 0.368440 0.270666 O
0.708120 0.368440 0.770666 O
0.708120 0.868440 0.270666 O
0.708120 0.868440 0.770666 O
0.458120 0.368440 0.020666 O
0.458120 0.368440 0.520666 O
0.458120 0.868440 0.020666 O
0.458120 0.868440 0.520666 O
0.958120 0.368440 0.020666 O
0.958121 0.368440 0.520666 O
0.958121 0.868440 0.020666 O
0.958120 0.868440 0.520666 O
0.208120 0.118440 0.020666 O
0.208120 0.118440 0.520666 O
0.208120 0.618440 0.020666 O
0.208120 0.618440 0.520666 O
0.708120 0.118440 0.020666 O
0.708121 0.118440 0.520666 O
0.708121 0.618440 0.020666 O
0.708121 0.618440 0.520666 O
0.458120 0.118440 0.270666 O
0.458120 0.118440 0.770666 O
0.458120 0.618440 0.270666 O
0.458120 0.618440 0.770666 O
0.958120 0.118440 0.270666 O
0.958120 0.118440 0.770666 O
0.958121 0.618440 0.270666 O
0.958121 0.618440 0.770666 O
0.270667 0.208121 0.368439 O
0.270667 0.208121 0.868439 O
0.270667 0.708121 0.368439 O
0.270667 0.708121 0.868439 O
0.770667 0.208121 0.368439 O
0.770667 0.208120 0.868439 O
0.770667 0.708121 0.368439 O
0.770667 0.708121 0.868439 O
0.020667 0.208120 0.118439 O
0.020667 0.208121 0.618439 O
0.020667 0.708120 0.118439 O
0.020667 0.708120 0.618439 O
0.520667 0.208120 0.118439 O
0.520667 0.208121 0.618439 O
0.520667 0.708121 0.118439 O
0.520667 0.708121 0.618439 O
0.270667 0.458121 0.118439 O
0.270667 0.458121 0.618439 O
0.270667 0.958121 0.118439 O
0.270667 0.958121 0.618439 O
0.770667 0.458121 0.118439 O
0.770667 0.458121 0.618439 O
0.770667 0.958121 0.118439 O
0.770667 0.958121 0.618439 O
0.020667 0.458121 0.368439 O
0.020667 0.458121 0.868439 O
0.020667 0.958121 0.368439 O
0.020667 0.958121 0.868439 O
0.520667 0.458121 0.368439 O
0.520667 0.458121 0.868439 O
0.520667 0.958121 0.368439 O
0.520667 0.958121 0.868439 O
0.368440 0.270666 0.208119 O
0.368440 0.270666 0.708119 O
0.368440 0.770666 0.208119 O
0.368440 0.770666 0.708119 O
0.868440 0.270666 0.208119 O
0.868440 0.270666 0.708119 O
0.868440 0.770666 0.208119 O
0.868440 0.770666 0.708119 O
0.118440 0.270666 0.458119 O
0.118440 0.270666 0.958119 O
0.118440 0.770666 0.458119 O
0.118440 0.770666 0.958119 O
0.618440 0.270666 0.458119 O
0.618440 0.270666 0.958119 O
0.618440 0.770666 0.458119 O
0.618440 0.770666 0.958119 O
0.368440 0.020666 0.458119 O
0.368440 0.020666 0.958119 O
0.368440 0.520666 0.458119 O
0.368440 0.520666 0.958119 O
0.868440 0.020666 0.458119 O
0.868440 0.020666 0.958119 O
0.868440 0.520666 0.458119 O
0.868440 0.520666 0.958119 O
0.118440 0.020666 0.208119 O
0.118440 0.020666 0.708119 O
0.118440 0.520666 0.208119 O
0.118440 0.520666 0.708119 O
0.618440 0.020666 0.208119 O
0.618440 0.020666 0.708119 O
0.618440 0.520666 0.208119 O
0.618440 0.520666 0.708119 O
0.208119 0.270666 0.118439 O
0.208119 0.270666 0.618439 O
0.208119 0.770666 0.118439 O
0.208119 0.770666 0.618439 O
0.708119 0.270666 0.118439 O
0.708119 0.270666 0.618439 O
0.708119 0.770666 0.118439 O
0.708119 0.770666 0.618439 O
0.458119 0.270666 0.368439 O
0.458119 0.270666 0.868439 O
0.458119 0.770666 0.368439 O
0.458119 0.770666 0.868439 O
0.958119 0.270666 0.368439 O
0.958119 0.270666 0.868439 O
0.958119 0.770666 0.368439 O
0.958119 0.770666 0.868439 O
0.208119 0.020666 0.368439 O
0.208119 0.020666 0.868439 O
0.208119 0.520666 0.368439 O
0.208119 0.520666 0.868439 O
0.708119 0.020666 0.368439 O
0.708119 0.020666 0.868439 O
0.708119 0.520666 0.368439 O
0.708119 0.520666 0.868439 O
0.458119 0.020666 0.118439 O
0.458119 0.020666 0.618439 O
0.458119 0.520666 0.118439 O
0.458119 0.520666 0.618439 O
0.958119 0.020666 0.118439 O
0.958119 0.020666 0.618439 O
0.958119 0.520666 0.118439 O
0.958119 0.520666 0.618439 O
0.118439 0.208121 0.270666 O
0.118439 0.208121 0.770667 O
0.118439 0.708121 0.270666 O
0.118439 0.708121 0.770667 O
0.618439 0.208121 0.270667 O
0.618439 0.208121 0.770666 O
0.618439 0.708121 0.270667 O
0.618439 0.708121 0.770666 O
0.368439 0.208121 0.020666 O
0.368439 0.208121 0.520667 O
0.368439 0.708121 0.020667 O
0.368439 0.708121 0.520667 O
0.868439 0.208121 0.020666 O
0.868439 0.208121 0.520666 O
0.868439 0.708121 0.020667 O
0.868439 0.708121 0.520667 O
0.118439 0.458121 0.020667 O
0.118439 0.458121 0.520667 O
0.118439 0.958121 0.020667 O
0.118439 0.958121 0.520666 O
0.618439 0.458121 0.020666 O
0.618439 0.458121 0.520667 O
0.618439 0.958121 0.020666 O
0.618439 0.958121 0.520666 O
0.368439 0.458121 0.270667 O
0.368439 0.458121 0.770667 O
0.368439 0.958121 0.270667 O
0.368439 0.958121 0.770667 O
0.868439 0.458121 0.270667 O
0.868439 0.458121 0.770667 O
0.868439 0.958121 0.270666 O
0.868439 0.958121 0.770667 O
0.270666 0.118440 0.208119 O
0.270666 0.118440 0.708119 O
0.270666 0.618440 0.208119 O
0.270666 0.618440 0.708120 O
0.770666 0.118440 0.208119 O
0.770666 0.118440 0.708119 O
0.770666 0.618440 0.208119 O
0.770666 0.618440 0.708119 O
0.020666 0.118440 0.458119 O
0.020666 0.118440 0.958119 O
0.020665 0.618440 0.458119 O
0.020666 0.618440 0.958119 O
0.520665 0.118440 0.458119 O
0.520665 0.118440 0.958119 O
0.520665 0.618440 0.458119 O
0.520666 0.618440 0.958119 O
0.270666 0.368440 0.458119 O
0.270666 0.368440 0.958120 O
0.270666 0.868440 0.458119 O
0.270666 0.868440 0.958119 O
0.770666 0.368440 0.458120 O
0.770666 0.368440 0.958119 O
0.770666 0.868440 0.458119 O
0.770666 0.868440 0.958120 O
0.020666 0.368440 0.208120 O
0.020666 0.368440 0.708119 O
0.020666 0.868440 0.208119 O
0.020666 0.868440 0.708119 O
0.520666 0.368440 0.208120 O
0.520666 0.368440 0.708119 O
0.520666 0.868440 0.208119 O
0.520666 0.868440 0.708119 O
