Li95 Nb33 O128                          
   1.00000000000000     
    13.7806110000000004   -0.0000030000000000   -4.8721819999999996
    -6.8903090000000002   11.9343559999999993   -4.8721850000000000
     0.0000000000000000   -0.0000040000000000   14.6165459999999996
   Li   Nb   O 
    95    33   128
Direct
  0.9998631491284868  0.1358266660992413  0.2573664175397994
  0.0008026769456819  0.1375328443518313  0.7577952071828093
  0.9991962405091144  0.6367295708171241  0.2569922618896427
  0.0001369187638716  0.6359634157239427  0.7575030255775417
  0.5000004129728666  0.1398109165444765  0.7586386546957726
  0.4999998262050624  0.6366365721286584  0.2566256989365243
  0.5000001463897590  0.6338566054716850  0.7575227640410418
  0.3629868321752880  0.3647712898236151  0.1196962421903436
  0.3609049135511029  0.3626819753942385  0.6221572325608662
  0.3569941525364584  0.8567882243875360  0.1172647704505394
  0.3610770561260281  0.8610700125035535  0.6197745840937969
  0.8680735914079207  0.3686660212429445  0.1214378190710477
  0.8684494937435758  0.3661875923032483  0.6225559173080271
  0.8630499344061917  0.8629534771911693  0.1209919775219603
  0.8657950757220618  0.8650384133753306  0.6209898555681903
  0.1315505812940145  0.9977382312314234  0.2541063955244880
  0.1319259626446438  0.0005923290247694  0.7533645644829292
  0.1342046376130668  0.4992432117673928  0.2551947701358657
  0.1369504184540062  0.4999039160632108  0.7579424074641778
  0.6430067237038912  0.9997948622643875  0.2602714285774113
  0.6389220286811295  0.9999922980704099  0.7586967374515723
  0.6370128131402311  0.5017844690568438  0.2567095494189289
  0.6390953509143031  0.5017769047958325  0.7612530049452388
  0.9997873813631699  0.2580755801222594  0.1354622741207123
  0.0011727240577812  0.2582557235407847  0.6370204453083375
  0.9988271416063554  0.7570827917693421  0.1358475372036381
  0.0002124486341444  0.7582879779113085  0.6356747399451805
  0.5000001384289732  0.2611777381098719  0.1348082781256963
  0.4999999542651992  0.2557846545308067  0.6375744842105391
  0.4999998832129720  0.7556814213814675  0.1376921838389791
  0.4999998686840925  0.7547426199563603  0.6375789013533009
  0.1362160762305251  0.2580714205499106  0.9989962546825595
  0.1365342009647037  0.2561366007491941  0.4990381678688607
  0.1316215793946611  0.7542012291976192  0.9989335762488167
  0.1348829946927808  0.7562889889189677  0.4987414304033493
  0.6385861840186848  0.2624363583933373  0.9996401444979810
  0.6483208202428230  0.2657088279750610  0.5121171299921414
  0.6384613899280041  0.7554049069432409  0.0005080508175439
  0.6397221551061634  0.7591375565225889  0.4996849106501173
  0.3516791040045320  0.1173883772296307  0.3637960793144615
  0.3614138862295846  0.1238502375159811  0.8610536726114972
  0.3602774452265010  0.6194150928849851  0.3599624006857951
  0.3615395877911851  0.6169440873929162  0.8620477960882837
  0.8683787180775084  0.1225798994698124  0.3673122900072698
  0.8651167709129126  0.1214056129632155  0.8638582496539655
  0.8637842847796975  0.6218558497066908  0.3627809793480097
  0.8634656682108073  0.6196021666822276  0.8625038513884178
  0.1190892676548927  0.3617653093433333  0.3610857563726668
  0.1211576509467633  0.3635551796045036  0.8628455888836939
  0.1196541198685992  0.8627264048018191  0.3620766033444838
  0.1149812032904691  0.8603583909151524  0.8607486547813963
  0.6279580547840169  0.3800611069140913  0.3724736819983363
  0.6218189221499060  0.3652442437177754  0.8647298288009253
  0.6236979404984595  0.8617944392023986  0.3655280974839812
  0.6224503500692435  0.8608195087417556  0.8614164820010686
  0.2539205655836696  0.1403547596914834  0.9981830086492991
  0.2537416641763599  0.1338177185585963  0.4994867322400438
  0.2549167430970556  0.6336736100912503  0.0000743311597020
  0.2548834691398483  0.6351823079485897  0.4994106970479066
  0.7632318004552374  0.1397219630709543  0.9978182652873286
  0.7628618804616849  0.1399871064015770  0.5026482481245864
  0.7571864113765301  0.6363765672393669  0.0002709452660454
  0.7601697973275776  0.6383253455416735  0.4987963598030802
  0.2434696440492701  0.9955235695654849  0.1269282539481509
  0.2546464266335633  0.0004066762226742  0.6349623105879516
  0.2559408135321064  0.4996242386751035  0.1346843711816845
  0.2587681127391974  0.4999014576792433  0.6372113426355739
  0.7600393296482935  0.9992857704437910  0.1386857854405292
  0.7593951365741205  0.0002973864395273  0.6377136330519164
  0.7577149411296205  0.5015301697631784  0.1357731059181404
  0.7601356207997298  0.5008721350894731  0.6369875554484636
  0.3720419527423502  0.2521027116455699  0.2445153462330651
  0.3781811655372422  0.2434256595059026  0.7429111857035906
  0.3763022058740688  0.7380962593759364  0.2418301944534633
  0.3775499832092848  0.7383697955713160  0.7389667318369888
  0.8850192261299838  0.2453776562749681  0.2457676725568874
  0.8803456600464088  0.2430723583654597  0.7424224298116258
  0.8788420479454189  0.7423976518096183  0.2416878099495747
  0.8809107598911652  0.7426757750793556  0.7419964984915310
  0.2398640698387595  0.2407363668871199  0.3768519158295121
  0.2422835464496913  0.2438135739258200  0.8780575806162290
  0.2406045984822072  0.7409024557823756  0.3783185101109652
  0.2399619613687349  0.7392467652467829  0.8786472471880415
  0.7565304626819156  0.2520537700234158  0.3834587160243785
  0.7453531358057006  0.2457595257045853  0.8803159335154476
  0.7440585828849464  0.7436831478316392  0.3787433421824602
  0.7412317576490821  0.7411329984702206  0.8784433830564140
  0.2398298185588388  0.3781554052640317  0.2386263977782050
  0.2428136470728575  0.3791907123944469  0.7430843777875893
  0.2371383429087075  0.8771254343065564  0.2397864009572714
  0.2367683147018269  0.8764908315824513  0.7345866640250804
  0.7460791919882936  0.3864342344540432  0.2442621508929861
  0.7462581049804484  0.3800757883664545  0.7457451862367321
  0.7450837008666298  0.8787575429531884  0.2451579323206730
  0.7451164310221969  0.8802987062037815  0.7445274430376898
  0.4999999905561339  0.1277652084859753  0.2613510831563985
  0.9998154058034956  0.9995432708095322  0.3585958288182667
  0.9996762277359039  0.0001475858054789  0.8588187647932557
  0.0003229098233319  0.5004711851176751  0.3591423177849151
  0.0001846793113600  0.4997276457115660  0.8587804856011019
  0.5000000532209228  0.9920736285913847  0.3651650495660164
  0.5000002793414069  0.0018022815319085  0.8587823343812246
  0.4999997395508800  0.5009152607115084  0.3583300947380152
  0.5000003697474114  0.4990570224904474  0.8589837850688156
  0.0004250076391870  0.3593587509285641  0.9989420054430695
  0.0034787754632291  0.3607674262292733  0.5012824651048078
  0.9965213221655915  0.8572886280424541  0.9978038874695798
  0.9995746427438092  0.8589335524999626  0.4985168739716883
  0.5000002998377227  0.3596073628157441  0.0002368703105020
  0.5000000537736113  0.3649927457243862  0.5073467485697449
  0.5000010610206829  0.8555240571788474  0.9998421996806854
  0.4999998288481109  0.8563804389142859  0.5026001989914093
  0.3534379117635993  0.9948267134479281  0.9904215783220494
  0.3584824617478546  0.9997640593050150  0.5010534084361637
  0.3591472836386487  0.5002455716658289  0.0000970401133884
  0.3563302279900142  0.4980232227157302  0.4964323181108341
  0.8581969974209755  0.9997636282184956  0.0003942132027106
  0.8600295045516333  0.0009438255753480  0.5010818869450446
  0.8594298205570041  0.5009706659349362  0.9999182775443884
  0.8616028295355633  0.5020240843932271  0.5011862704340899
  0.1383971897273781  0.1404214918817956  0.1395836026448123
  0.1405702476742761  0.1415412020411395  0.6404889919282297
  0.1399707194546167  0.6409142654786848  0.1410523893307882
  0.1418031488598146  0.6415664878986505  0.6421972016993536
  0.6465626526837838  0.1413896286896517  0.1369842202038569
  0.6415175431659037  0.1412818672868283  0.6425711234930063
  0.6408522962978864  0.6410991660189822  0.1409509379798592
  0.6436698735494986  0.6416929835565597  0.6401020241320694
  0.0002784929362178  0.3798489141111006  0.2560480229607052
  0.0007720970099072  0.3797779564435970  0.7558523840634308
  0.9992279341913672  0.8790058756069996  0.2550803202576901
  0.9997213696933684  0.8795703006876678  0.7557691786818737
  0.5000000005097434  0.3792178939745128  0.2566850576134527
  0.5000007879041846  0.3787015648917773  0.7553971148006227
  0.4999993750435436  0.8799190226756082  0.2559966149368620
  0.4999999137387121  0.8790238325635542  0.7599774899212193
  0.1204663635389380  0.1199401129349482  0.3759080140593056
  0.1200695020511944  0.1210517368145290  0.8764729791199741
  0.1209518574025168  0.6208338647572518  0.3770231895774501
  0.1208114330558772  0.6211335055402927  0.8771663440741122
  0.6242121412404344  0.1261300334566329  0.3766868266180197
  0.6213662075362834  0.1212391137156033  0.8785802005150529
  0.6211474390480518  0.6212047480856242  0.3773446739409465
  0.6202486191441352  0.6198237639661244  0.8760583968936260
  0.3757878995604074  0.0019176212937495  0.2524744624680153
  0.3786340140389726  0.9998724013715830  0.7572137110396255
  0.3788521452256077  0.5000568183351817  0.2561965082156519
  0.3797527772071021  0.4995757414601556  0.7558095053263401
  0.8791886981471606  0.0003221268004836  0.2563548375832738
  0.8790477538325376  0.9998813234308273  0.7560706490435507
  0.8799299495490800  0.5009823246549416  0.2564032091485444
  0.8795338187657791  0.4994737128460116  0.7554416769189203
  0.0016064354258205  0.2567454460041176  0.3797978874368724
  0.0000909918545133  0.2560878018595432  0.8786542997676392
  0.9999083709287007  0.7559966043859845  0.3785630207514572
  0.9983936004404370  0.7551391918670234  0.8781913681309561
  0.4999997114930039  0.2484257138902777  0.3721763832953897
  0.5000002152928786  0.2560154818759699  0.8797667991133338
  0.4999996203329431  0.7559567755991665  0.3802995763459336
  0.5000028345260432  0.7551483228901361  0.8809897966650340
  0.3796348674832259  0.2557764281670813  0.0005395947432660
  0.3795451843495883  0.2526146201619142  0.4965529193448859
  0.3793381248068854  0.7579132128963977  0.0022800224262980
  0.3789918449168965  0.7539567104807574  0.5010474660570949
  0.8796585956997376  0.2568264656391506  0.9995133293752545
  0.8820245841795185  0.2578327887710827  0.5010184624969511
  0.8769295477444743  0.7549630647551311  0.9985614546176009
  0.8795490700212127  0.7563697357221670  0.4994184743365295
  0.1204510141354191  0.3768207949731845  0.1198691763317115
  0.1230706324751480  0.3780338654321440  0.6216320941625710
  0.1179752611238172  0.8758089293046893  0.1189937071536065
  0.1203413870103347  0.8771681954030157  0.6198547311013911
  0.6203649558047886  0.3761412932541432  0.1209050683125739
  0.6204551375639511  0.3730697935881082  0.6170077098147999
  0.6206628394467586  0.8785766547232257  0.1229450691206821
  0.6210075098197905  0.8749642454275204  0.6220552261858288
  0.3812240577642925  0.1206181386350309  0.1259618749384259
  0.3767296985087114  0.1203202586703043  0.6211019644438949
  0.3767356861274891  0.6207869494808023  0.1209908746869317
  0.3775108013565216  0.6181339731495825  0.6201046037658742
  0.8753284615063492  0.1208771108511897  0.1200747405062970
  0.8772709744759126  0.1213840291766104  0.6211650945038656
  0.8762665478053222  0.6209467787423222  0.1200783334363535
  0.8779420509786604  0.6217124918253489  0.6210481141091506
  0.2562633421144582  0.3794796185873466  0.9998111765517450
  0.2570587825133117  0.3776496126186188  0.4988681937141877
  0.2549738259381513  0.8802866481833789  0.9990619728561541
  0.2567371761088637  0.8787211622119599  0.5005043925619717
  0.7564619395696397  0.3800208981751965  0.9997875237157672
  0.7576335294626375  0.3807439548750651  0.5004282646434319
  0.7542475759166294  0.8790454887309025  0.9995349927539721
  0.7565098542340465  0.8798067995399421  0.5003160025530988
  0.2557254056022842  0.9983735074671856  0.3788881134849476
  0.2537320976359823  0.0020153595669541  0.8785377773609397
  0.2545613184001780  0.4986549898197694  0.3777082940352088
  0.2564749116583585  0.5005585661816667  0.8796259851798496
  0.7567149487045768  0.0011880581285908  0.3804871751381356
  0.7549557211407532  0.9996569699622881  0.8794739309993105
  0.7566740725105063  0.5005518632608386  0.3797281298993056
  0.7558959342135694  0.4995103191631003  0.8783561635684620
  0.1220582750139627  0.2437706446658368  0.2431060446617579
  0.1237337794671234  0.2446807121096555  0.7438120962723929
  0.1227294074765126  0.7441133529953987  0.2438943112113847
  0.1246713277756015  0.7455486585097759  0.7447461176226824
  0.6187757772239308  0.2393939517159254  0.2447378740290489
  0.6232703675558326  0.2435908785779972  0.7443728889991803
  0.6232635723902860  0.7440531353474071  0.2442546220725674
  0.6224893591014080  0.7406230434659449  0.7425937635133479
  0.2433257745471096  0.2438781348977344  0.1230539707876730
  0.2441038168000560  0.2436140546825882  0.6224598468157154
  0.2432855306896684  0.7444730892479612  0.1237723851362844
  0.2450441157533731  0.7447013974290257  0.6245182928524571
  0.7462680680085398  0.2482838347538561  0.1248060830657280
  0.7442748624090711  0.2426480132880826  0.6231629277590685
  0.7435250967182654  0.7440837826568512  0.1231517729139568
  0.7454394833183571  0.7440946739109080  0.6231475555381465
  0.2423667026774936  0.1231107293404250  0.2427946461389539
  0.2435381956064617  0.1235592175325806  0.7433261292575466
  0.2434902695078662  0.6232971356388504  0.2438063613307051
  0.2457529001957255  0.6247982137551347  0.7452875823957115
  0.7450262396264620  0.1253131513037502  0.2440884636921794
  0.7432631513284989  0.1219840136005246  0.7437667328754713
  0.7437367240751414  0.6232173415396574  0.2435489365873380
  0.7429411427306079  0.6205906332687334  0.7418093388780775
  0.9985663480542257  0.9995983181881485  0.1135153743526018
  0.0003609299288527  0.0003813905473393  0.6143212534725890
  0.9996391990237257  0.5000205139777592  0.1139603035468610
  0.0014335859502950  0.5010318253352679  0.6149489095836387
  0.5000003474316657  0.0094147153258177  0.1301073811195081
  0.4999999981440268  0.9982832557076478  0.6125377398740142
  0.4999992667135587  0.4998890236820017  0.1144146592403743
  0.4999998516254323  0.4936451181496224  0.6133501600971698
  0.9990041806873720  0.1136636508747486  0.9995323828153602
  0.9999853319807670  0.1144999000871039  0.4997411764513089
  0.0000149018107507  0.6145146077590624  0.9997559686676212
  0.0009959144946237  0.6146595391768699  0.5005282853334379
  0.5000002914174715  0.1129717050488210  0.0026346411057574
  0.5000001674374275  0.1124971700215838  0.4991453743906931
  0.5000004281486881  0.6142944757770508  0.9999091677075924
  0.5000000262956021  0.6101511813593987  0.5007649526090248
  0.1143333279648928  0.9995750513513073  0.0000362864000323
  0.1145066927334071  0.0002549996019141  0.4994908891537619
  0.1144396764591988  0.5004584284506208  0.0000175648322909
  0.1153003139919804  0.5009572270459373  0.5005159417863823
  0.6122223526877804  0.0013963044236860  0.0056122122815907
  0.6147492993326011  0.9984778764156133  0.4993146428946886
  0.6141138101114407  0.4996583889372914  0.9999448406801008
  0.6136535696140726  0.4963367371965646  0.4981080230117882
  0.3863465208805010  0.3826832934931517  0.3844545289099059
  0.3858875674134126  0.3855452083152500  0.8858302781234713
  0.3852506838081737  0.8837283396832731  0.3845652310163103
  0.3877782235638989  0.8891739046164489  0.8933903425542908
  0.8856668799609650  0.3852420107879269  0.3857029956879572
  0.8854934597785160  0.3857483316542982  0.8849843048572197
  0.8855605605135963  0.8860189925330459  0.3855778803947487
  0.8846994776328003  0.8856567773101176  0.8852155853499184
 
  0.00000000E+00  0.00000000E+00  0.00000000E+00
  0.00000000E+00  0.00000000E+00  0.00000000E+00
  0.00000000E+00  0.00000000E+00  0.00000000E+00
  0.00000000E+00  0.00000000E+00  0.00000000E+00
  0.00000000E+00  0.00000000E+00  0.00000000E+00
  0.00000000E+00  0.00000000E+00  0.00000000E+00
  0.00000000E+00  0.00000000E+00  0.00000000E+00
  0.00000000E+00  0.00000000E+00  0.00000000E+00
  0.00000000E+00  0.00000000E+00  0.00000000E+00
  0.00000000E+00  0.00000000E+00  0.00000000E+00
  0.00000000E+00  0.00000000E+00  0.00000000E+00
  0.00000000E+00  0.00000000E+00  0.00000000E+00
  0.00000000E+00  0.00000000E+00  0.00000000E+00
  0.00000000E+00  0.00000000E+00  0.00000000E+00
  0.00000000E+00  0.00000000E+00  0.00000000E+00
  0.00000000E+00  0.00000000E+00  0.00000000E+00
  0.00000000E+00  0.00000000E+00  0.00000000E+00
  0.00000000E+00  0.00000000E+00  0.00000000E+00
  0.00000000E+00  0.00000000E+00  0.00000000E+00
  0.00000000E+00  0.00000000E+00  0.00000000E+00
  0.00000000E+00  0.00000000E+00  0.00000000E+00
  0.00000000E+00  0.00000000E+00  0.00000000E+00
  0.00000000E+00  0.00000000E+00  0.00000000E+00
  0.00000000E+00  0.00000000E+00  0.00000000E+00
  0.00000000E+00  0.00000000E+00  0.00000000E+00
  0.00000000E+00  0.00000000E+00  0.00000000E+00
  0.00000000E+00  0.00000000E+00  0.00000000E+00
  0.00000000E+00  0.00000000E+00  0.00000000E+00
  0.00000000E+00  0.00000000E+00  0.00000000E+00
  0.00000000E+00  0.00000000E+00  0.00000000E+00
  0.00000000E+00  0.00000000E+00  0.00000000E+00
  0.00000000E+00  0.00000000E+00  0.00000000E+00
  0.00000000E+00  0.00000000E+00  0.00000000E+00
  0.00000000E+00  0.00000000E+00  0.00000000E+00
  0.00000000E+00  0.00000000E+00  0.00000000E+00
  0.00000000E+00  0.00000000E+00  0.00000000E+00
  0.00000000E+00  0.00000000E+00  0.00000000E+00
  0.00000000E+00  0.00000000E+00  0.00000000E+00
  0.00000000E+00  0.00000000E+00  0.00000000E+00
  0.00000000E+00  0.00000000E+00  0.00000000E+00
  0.00000000E+00  0.00000000E+00  0.00000000E+00
  0.00000000E+00  0.00000000E+00  0.00000000E+00
  0.00000000E+00  0.00000000E+00  0.00000000E+00
  0.00000000E+00  0.00000000E+00  0.00000000E+00
  0.00000000E+00  0.00000000E+00  0.00000000E+00
  0.00000000E+00  0.00000000E+00  0.00000000E+00
  0.00000000E+00  0.00000000E+00  0.00000000E+00
  0.00000000E+00  0.00000000E+00  0.00000000E+00
  0.00000000E+00  0.00000000E+00  0.00000000E+00
  0.00000000E+00  0.00000000E+00  0.00000000E+00
  0.00000000E+00  0.00000000E+00  0.00000000E+00
  0.00000000E+00  0.00000000E+00  0.00000000E+00
  0.00000000E+00  0.00000000E+00  0.00000000E+00
  0.00000000E+00  0.00000000E+00  0.00000000E+00
  0.00000000E+00  0.00000000E+00  0.00000000E+00
  0.00000000E+00  0.00000000E+00  0.00000000E+00
  0.00000000E+00  0.00000000E+00  0.00000000E+00
  0.00000000E+00  0.00000000E+00  0.00000000E+00
  0.00000000E+00  0.00000000E+00  0.00000000E+00
  0.00000000E+00  0.00000000E+00  0.00000000E+00
  0.00000000E+00  0.00000000E+00  0.00000000E+00
  0.00000000E+00  0.00000000E+00  0.00000000E+00
  0.00000000E+00  0.00000000E+00  0.00000000E+00
  0.00000000E+00  0.00000000E+00  0.00000000E+00
  0.00000000E+00  0.00000000E+00  0.00000000E+00
  0.00000000E+00  0.00000000E+00  0.00000000E+00
  0.00000000E+00  0.00000000E+00  0.00000000E+00
  0.00000000E+00  0.00000000E+00  0.00000000E+00
  0.00000000E+00  0.00000000E+00  0.00000000E+00
  0.00000000E+00  0.00000000E+00  0.00000000E+00
  0.00000000E+00  0.00000000E+00  0.00000000E+00
  0.00000000E+00  0.00000000E+00  0.00000000E+00
  0.00000000E+00  0.00000000E+00  0.00000000E+00
  0.00000000E+00  0.00000000E+00  0.00000000E+00
  0.00000000E+00  0.00000000E+00  0.00000000E+00
  0.00000000E+00  0.00000000E+00  0.00000000E+00
  0.00000000E+00  0.00000000E+00  0.00000000E+00
  0.00000000E+00  0.00000000E+00  0.00000000E+00
  0.00000000E+00  0.00000000E+00  0.00000000E+00
  0.00000000E+00  0.00000000E+00  0.00000000E+00
  0.00000000E+00  0.00000000E+00  0.00000000E+00
  0.00000000E+00  0.00000000E+00  0.00000000E+00
  0.00000000E+00  0.00000000E+00  0.00000000E+00
  0.00000000E+00  0.00000000E+00  0.00000000E+00
  0.00000000E+00  0.00000000E+00  0.00000000E+00
  0.00000000E+00  0.00000000E+00  0.00000000E+00
  0.00000000E+00  0.00000000E+00  0.00000000E+00
  0.00000000E+00  0.00000000E+00  0.00000000E+00
  0.00000000E+00  0.00000000E+00  0.00000000E+00
  0.00000000E+00  0.00000000E+00  0.00000000E+00
  0.00000000E+00  0.00000000E+00  0.00000000E+00
  0.00000000E+00  0.00000000E+00  0.00000000E+00
  0.00000000E+00  0.00000000E+00  0.00000000E+00
  0.00000000E+00  0.00000000E+00  0.00000000E+00
  0.00000000E+00  0.00000000E+00  0.00000000E+00
  0.00000000E+00  0.00000000E+00  0.00000000E+00
  0.00000000E+00  0.00000000E+00  0.00000000E+00
  0.00000000E+00  0.00000000E+00  0.00000000E+00
  0.00000000E+00  0.00000000E+00  0.00000000E+00
  0.00000000E+00  0.00000000E+00  0.00000000E+00
  0.00000000E+00  0.00000000E+00  0.00000000E+00
  0.00000000E+00  0.00000000E+00  0.00000000E+00
  0.00000000E+00  0.00000000E+00  0.00000000E+00
  0.00000000E+00  0.00000000E+00  0.00000000E+00
  0.00000000E+00  0.00000000E+00  0.00000000E+00
  0.00000000E+00  0.00000000E+00  0.00000000E+00
  0.00000000E+00  0.00000000E+00  0.00000000E+00
  0.00000000E+00  0.00000000E+00  0.00000000E+00
  0.00000000E+00  0.00000000E+00  0.00000000E+00
  0.00000000E+00  0.00000000E+00  0.00000000E+00
  0.00000000E+00  0.00000000E+00  0.00000000E+00
  0.00000000E+00  0.00000000E+00  0.00000000E+00
  0.00000000E+00  0.00000000E+00  0.00000000E+00
  0.00000000E+00  0.00000000E+00  0.00000000E+00
  0.00000000E+00  0.00000000E+00  0.00000000E+00
  0.00000000E+00  0.00000000E+00  0.00000000E+00
  0.00000000E+00  0.00000000E+00  0.00000000E+00
  0.00000000E+00  0.00000000E+00  0.00000000E+00
  0.00000000E+00  0.00000000E+00  0.00000000E+00
  0.00000000E+00  0.00000000E+00  0.00000000E+00
  0.00000000E+00  0.00000000E+00  0.00000000E+00
  0.00000000E+00  0.00000000E+00  0.00000000E+00
  0.00000000E+00  0.00000000E+00  0.00000000E+00
  0.00000000E+00  0.00000000E+00  0.00000000E+00
  0.00000000E+00  0.00000000E+00  0.00000000E+00
  0.00000000E+00  0.00000000E+00  0.00000000E+00
  0.00000000E+00  0.00000000E+00  0.00000000E+00
  0.00000000E+00  0.00000000E+00  0.00000000E+00
  0.00000000E+00  0.00000000E+00  0.00000000E+00
  0.00000000E+00  0.00000000E+00  0.00000000E+00
  0.00000000E+00  0.00000000E+00  0.00000000E+00
  0.00000000E+00  0.00000000E+00  0.00000000E+00
  0.00000000E+00  0.00000000E+00  0.00000000E+00
  0.00000000E+00  0.00000000E+00  0.00000000E+00
  0.00000000E+00  0.00000000E+00  0.00000000E+00
  0.00000000E+00  0.00000000E+00  0.00000000E+00
  0.00000000E+00  0.00000000E+00  0.00000000E+00
  0.00000000E+00  0.00000000E+00  0.00000000E+00
  0.00000000E+00  0.00000000E+00  0.00000000E+00
  0.00000000E+00  0.00000000E+00  0.00000000E+00
  0.00000000E+00  0.00000000E+00  0.00000000E+00
  0.00000000E+00  0.00000000E+00  0.00000000E+00
  0.00000000E+00  0.00000000E+00  0.00000000E+00
  0.00000000E+00  0.00000000E+00  0.00000000E+00
  0.00000000E+00  0.00000000E+00  0.00000000E+00
  0.00000000E+00  0.00000000E+00  0.00000000E+00
  0.00000000E+00  0.00000000E+00  0.00000000E+00
  0.00000000E+00  0.00000000E+00  0.00000000E+00
  0.00000000E+00  0.00000000E+00  0.00000000E+00
  0.00000000E+00  0.00000000E+00  0.00000000E+00
  0.00000000E+00  0.00000000E+00  0.00000000E+00
  0.00000000E+00  0.00000000E+00  0.00000000E+00
  0.00000000E+00  0.00000000E+00  0.00000000E+00
  0.00000000E+00  0.00000000E+00  0.00000000E+00
  0.00000000E+00  0.00000000E+00  0.00000000E+00
  0.00000000E+00  0.00000000E+00  0.00000000E+00
  0.00000000E+00  0.00000000E+00  0.00000000E+00
  0.00000000E+00  0.00000000E+00  0.00000000E+00
  0.00000000E+00  0.00000000E+00  0.00000000E+00
  0.00000000E+00  0.00000000E+00  0.00000000E+00
  0.00000000E+00  0.00000000E+00  0.00000000E+00
  0.00000000E+00  0.00000000E+00  0.00000000E+00
  0.00000000E+00  0.00000000E+00  0.00000000E+00
  0.00000000E+00  0.00000000E+00  0.00000000E+00
  0.00000000E+00  0.00000000E+00  0.00000000E+00
  0.00000000E+00  0.00000000E+00  0.00000000E+00
  0.00000000E+00  0.00000000E+00  0.00000000E+00
  0.00000000E+00  0.00000000E+00  0.00000000E+00
  0.00000000E+00  0.00000000E+00  0.00000000E+00
  0.00000000E+00  0.00000000E+00  0.00000000E+00
  0.00000000E+00  0.00000000E+00  0.00000000E+00
  0.00000000E+00  0.00000000E+00  0.00000000E+00
  0.00000000E+00  0.00000000E+00  0.00000000E+00
  0.00000000E+00  0.00000000E+00  0.00000000E+00
  0.00000000E+00  0.00000000E+00  0.00000000E+00
  0.00000000E+00  0.00000000E+00  0.00000000E+00
  0.00000000E+00  0.00000000E+00  0.00000000E+00
  0.00000000E+00  0.00000000E+00  0.00000000E+00
  0.00000000E+00  0.00000000E+00  0.00000000E+00
  0.00000000E+00  0.00000000E+00  0.00000000E+00
  0.00000000E+00  0.00000000E+00  0.00000000E+00
  0.00000000E+00  0.00000000E+00  0.00000000E+00
  0.00000000E+00  0.00000000E+00  0.00000000E+00
  0.00000000E+00  0.00000000E+00  0.00000000E+00
  0.00000000E+00  0.00000000E+00  0.00000000E+00
  0.00000000E+00  0.00000000E+00  0.00000000E+00
  0.00000000E+00  0.00000000E+00  0.00000000E+00
  0.00000000E+00  0.00000000E+00  0.00000000E+00
  0.00000000E+00  0.00000000E+00  0.00000000E+00
  0.00000000E+00  0.00000000E+00  0.00000000E+00
  0.00000000E+00  0.00000000E+00  0.00000000E+00
  0.00000000E+00  0.00000000E+00  0.00000000E+00
  0.00000000E+00  0.00000000E+00  0.00000000E+00
  0.00000000E+00  0.00000000E+00  0.00000000E+00
  0.00000000E+00  0.00000000E+00  0.00000000E+00
  0.00000000E+00  0.00000000E+00  0.00000000E+00
  0.00000000E+00  0.00000000E+00  0.00000000E+00
  0.00000000E+00  0.00000000E+00  0.00000000E+00
  0.00000000E+00  0.00000000E+00  0.00000000E+00
  0.00000000E+00  0.00000000E+00  0.00000000E+00
  0.00000000E+00  0.00000000E+00  0.00000000E+00
  0.00000000E+00  0.00000000E+00  0.00000000E+00
  0.00000000E+00  0.00000000E+00  0.00000000E+00
  0.00000000E+00  0.00000000E+00  0.00000000E+00
  0.00000000E+00  0.00000000E+00  0.00000000E+00
  0.00000000E+00  0.00000000E+00  0.00000000E+00
  0.00000000E+00  0.00000000E+00  0.00000000E+00
  0.00000000E+00  0.00000000E+00  0.00000000E+00
  0.00000000E+00  0.00000000E+00  0.00000000E+00
  0.00000000E+00  0.00000000E+00  0.00000000E+00
  0.00000000E+00  0.00000000E+00  0.00000000E+00
  0.00000000E+00  0.00000000E+00  0.00000000E+00
  0.00000000E+00  0.00000000E+00  0.00000000E+00
  0.00000000E+00  0.00000000E+00  0.00000000E+00
  0.00000000E+00  0.00000000E+00  0.00000000E+00
  0.00000000E+00  0.00000000E+00  0.00000000E+00
  0.00000000E+00  0.00000000E+00  0.00000000E+00
  0.00000000E+00  0.00000000E+00  0.00000000E+00
  0.00000000E+00  0.00000000E+00  0.00000000E+00
  0.00000000E+00  0.00000000E+00  0.00000000E+00
  0.00000000E+00  0.00000000E+00  0.00000000E+00
  0.00000000E+00  0.00000000E+00  0.00000000E+00
  0.00000000E+00  0.00000000E+00  0.00000000E+00
  0.00000000E+00  0.00000000E+00  0.00000000E+00
  0.00000000E+00  0.00000000E+00  0.00000000E+00
  0.00000000E+00  0.00000000E+00  0.00000000E+00
  0.00000000E+00  0.00000000E+00  0.00000000E+00
  0.00000000E+00  0.00000000E+00  0.00000000E+00
  0.00000000E+00  0.00000000E+00  0.00000000E+00
  0.00000000E+00  0.00000000E+00  0.00000000E+00
  0.00000000E+00  0.00000000E+00  0.00000000E+00
  0.00000000E+00  0.00000000E+00  0.00000000E+00
  0.00000000E+00  0.00000000E+00  0.00000000E+00
  0.00000000E+00  0.00000000E+00  0.00000000E+00
  0.00000000E+00  0.00000000E+00  0.00000000E+00
  0.00000000E+00  0.00000000E+00  0.00000000E+00
  0.00000000E+00  0.00000000E+00  0.00000000E+00
  0.00000000E+00  0.00000000E+00  0.00000000E+00
  0.00000000E+00  0.00000000E+00  0.00000000E+00
  0.00000000E+00  0.00000000E+00  0.00000000E+00
  0.00000000E+00  0.00000000E+00  0.00000000E+00
  0.00000000E+00  0.00000000E+00  0.00000000E+00
  0.00000000E+00  0.00000000E+00  0.00000000E+00
  0.00000000E+00  0.00000000E+00  0.00000000E+00
  0.00000000E+00  0.00000000E+00  0.00000000E+00
  0.00000000E+00  0.00000000E+00  0.00000000E+00
  0.00000000E+00  0.00000000E+00  0.00000000E+00
  0.00000000E+00  0.00000000E+00  0.00000000E+00
  0.00000000E+00  0.00000000E+00  0.00000000E+00
  0.00000000E+00  0.00000000E+00  0.00000000E+00
  0.00000000E+00  0.00000000E+00  0.00000000E+00
  0.00000000E+00  0.00000000E+00  0.00000000E+00
  0.00000000E+00  0.00000000E+00  0.00000000E+00
  0.00000000E+00  0.00000000E+00  0.00000000E+00
  0.00000000E+00  0.00000000E+00  0.00000000E+00
  0.00000000E+00  0.00000000E+00  0.00000000E+00
