Li63 Nb65 O192                          
   1.00000000000000     
    15.1469600000000000   -0.0012470000000000   -0.0011610000000000
     1.0576070000000000   15.1097420000000007   -0.0009680000000000
     1.0576360000000000    0.9859670000000000   15.0777149999999995
   Li   Nb   O 
    63    65   192
Direct
  0.2471357142581070  0.2456710762171497  0.2472648987061135
  0.2479074358862405  0.2482659419055651  0.7532328011914018
  0.2500664179214951  0.7507552071317249  0.2494496004744278
  0.2486701534602886  0.7508318813092174  0.7510998356515870
  0.7541489619004409  0.2475310828541240  0.2491501700572911
  0.7508087568576300  0.2488187092840235  0.7523369338049335
  0.7509825689307874  0.7504321549037343  0.2496461691412506
  0.7508729426379475  0.7502307323522714  0.7508954374204961
  0.9999613009370734  0.2496197885871538  0.0011058757286833
  0.9996008560974303  0.2460742492093217  0.5016931247704264
  0.0002761197163110  0.7502752054905599  0.0002773293188696
  0.0011065912792247  0.7499609973265819  0.4996202460529915
  0.4960743985066287  0.2516907683937148  0.9995998418667114
  0.4996201155660032  0.7511043204591630  0.9999620494277579
  0.5016910899972871  0.7495988766107473  0.4960743816472899
  0.2494494712733797  0.0000659396718490  0.0007556707450433
  0.2472626577598760  0.9971351218986726  0.4956702022562922
  0.2496455798633335  0.5009813649168322  0.0004334973204791
  0.2491491695570289  0.5041512432049515  0.4975317429198824
  0.7511001305383331  0.9986689760347716  0.0008308253610991
  0.7532310336811747  0.9979071030140929  0.4982654893951732
  0.7508946427360854  0.5008709516213301  0.0002326144210798
  0.7523359681635924  0.5008109347428018  0.4988215537896394
  0.0007561143338108  0.9994498058901939  0.2500660635603751
  0.0004333151667737  0.9996453367603877  0.7509817569837693
  0.0008316829471298  0.5010984670570338  0.2486705652465702
  0.0002307682982092  0.5008958166154400  0.7508736843450663
  0.4956703398040787  0.9972624028288735  0.2471351834505739
  0.4975305895229241  0.9991478471139601  0.7541484277545933
  0.4982657933428953  0.5032293097685141  0.2479072899979755
  0.4988202298395734  0.5023356837507151  0.7508092889134588
  0.0007988304113198  0.9996249015567500  0.9999445739916411
  0.0009527665236462  0.0007225740892380  0.4991115147443139
  0.0002652476294429  0.5001398819755636  0.0000922206085079
  0.9995308284987985  0.5034054481464523  0.4996961137620985
  0.4987113222796324  0.9969130721020960  0.0002812188402928
  0.4977343675916970  0.9971513481313252  0.4971159392252389
  0.4992284663435100  0.5005232923076619  0.0011369206816880
  0.4979458562462398  0.5014136404939435  0.4986569012566235
  0.2496194357298478  0.9996202172806150  0.2496194189537704
  0.2467791104782080  0.9968620634577690  0.7555642329229286
  0.2468614175460786  0.5055652459689952  0.2467780599159468
  0.2485947643743955  0.5019904275918137  0.7546988008977067
  0.7555657103389208  0.9967782765437292  0.2468609794944072
  0.7546986063717895  0.9985942363049247  0.7519891546658144
  0.7519903280541129  0.5046978355446612  0.2485940485924303
  0.7506620394539638  0.5006617080892113  0.7506622956337026
  0.0002831422484277  0.2487127560584526  0.2469135606264103
  0.0011367042482320  0.2492283961008468  0.7505234943069183
  0.9999451877967758  0.7507977491065603  0.2496244274736412
  0.0000926654827609  0.7502638805977924  0.7501401056500114
  0.4971169820323027  0.2477315220136944  0.2471491343015302
  0.4986565772492213  0.2479463232610399  0.7514136988327138
  0.4991118629858988  0.7509512227318353  0.2507214533091471
  0.4996955246725605  0.7495300763167734  0.7534041604436652
  0.2507229826036834  0.2491127603084777  0.0009511811229999
  0.2471506930999610  0.2471169685599861  0.4977321554738054
  0.2496248025282242  0.7499446541217054  0.0007990642344566
  0.2469139125227500  0.7502848816555812  0.4987110471746945
  0.7534046983798603  0.2496965307513221  0.9995290086312352
  0.7514137544575945  0.2486562852207754  0.4979456721855087
  0.7501405733513877  0.7500918196314217  0.0002642235921684
  0.7505240874929768  0.7511371575244326  0.4992286025757267
  0.4998882326916814  0.2498866335422107  0.4998870966285551
  0.1096629229340138  0.1086731154050113  0.1088209350328952
  0.1101135123291499  0.1086146187502379  0.6090022774309745
  0.1083762562145338  0.6094799844743051  0.1084694017178620
  0.1086813577896208  0.6096610541528165  0.6092740134613805
  0.6080701689442947  0.1102440790566703  0.1030074766915519
  0.6142172405245034  0.0974173751122365  0.6104088829143492
  0.6084520984774642  0.6101064778435941  0.1090248856185028
  0.6086226284212728  0.6092739090855801  0.6082926361010834
  0.3582942197572621  0.1082918356904941  0.3582933287715306
  0.3589984106980708  0.1082465445626042  0.8603424934540556
  0.3582485451093831  0.6103432805521081  0.3589998278316955
  0.3585580367018792  0.6088389284696660  0.8596857876606450
  0.8603449538238408  0.1089976125361360  0.3582473476379491
  0.8596870078549088  0.1085548541709542  0.8588399194244616
  0.8588422178379957  0.6096839498691722  0.3585563945710390
  0.8587245866512134  0.6087208441266867  0.8587233434981982
  0.1030110024226047  0.3580669705619854  0.3602475698432883
  0.1090240834542513  0.3584500895403906  0.8601082753663363
  0.1088233982416753  0.8596607613112539  0.3586732829905728
  0.1084713593783562  0.8583735600193449  0.8594823645966230
  0.6104126757017028  0.3642172770704448  0.3474147177895901
  0.6082920268336167  0.3586187898058029  0.8592758320791276
  0.6090048653020048  0.8601105417646480  0.3586138245643014
  0.6092764526562320  0.8586764032733356  0.8596600875047855
  0.3586167399860045  0.3590018539687208  0.1101116995212621
  0.3474155798691356  0.3604109131421538  0.6142193910068912
  0.3586746621847823  0.8588188868494271  0.1096617018578456
  0.3602477850646011  0.8530098772259720  0.6080696781262489
  0.8596634592778472  0.3592722523768401  0.1086796201601317
  0.8592779954381484  0.3582913832141728  0.6086215456805846
  0.8594829802168391  0.8584677524107249  0.1083738782356818
  0.8601090544000911  0.8590231393016268  0.6084499389495548
  0.3451818636904491  0.3633422822395787  0.3543501347194109
  0.3579052625816743  0.3594031333438181  0.8603142417100145
  0.3586541434129131  0.8593529741389219  0.3589632208084907
  0.3580267985150627  0.8588729993892130  0.8599945300413978
  0.8598329070471991  0.3586451559024582  0.3586041288172126
  0.8589420998460113  0.3587427041659339  0.8592311725998130
  0.8595513580779794  0.8584863375783414  0.3589382015227542
  0.8588620227940496  0.8582653953180639  0.8592212568329671
  0.1094594057176437  0.3589926657398479  0.1092391967653725
  0.1052480789709378  0.3602686913671036  0.6079893658968913
  0.1090272945686053  0.8590247639255111  0.1090261310517135
  0.1092380657685794  0.8594581297236630  0.6089946421771799
  0.6102706955236670  0.3579868092710115  0.1052488139847796
  0.6112482759667373  0.3612455984403127  0.6112494281303853
  0.6089933242254020  0.8592358157483702  0.1094588842165081
  0.6079884920162613  0.8552454859177345  0.6102710819801516
  0.3589633429545884  0.1086517763866155  0.1093547821868839
  0.3543497064027648  0.0951844507582393  0.6133424471936024
  0.3589380362180776  0.6095480561373279  0.1084899451337762
  0.3586047931760064  0.6098313600571714  0.6086461574926290
  0.8599949761324979  0.1080247889685353  0.1088727499075262
  0.8603120163752678  0.1079029509576230  0.6094051707954051
  0.8592227979070657  0.6088593830968634  0.1082682267293862
  0.8592308869304546  0.6089402366771495  0.6087454086781605
  0.1093539840123725  0.1089617929234947  0.3586528210373103
  0.1084897077804783  0.1089368662109536  0.8595503086961145
  0.1088745417869745  0.6099929916825459  0.3580265897051618
  0.1082676858114837  0.6092193535835264  0.8588637091699596
  0.6133429002692381  0.1043463113229208  0.3451838511170919
  0.6086465347421566  0.1086020253813658  0.8598324754559883
  0.6094049577807041  0.6103106399772784  0.3579050632219989
  0.6087443710149287  0.6092282714246693  0.8589425736479441
  0.3147077646757879  0.2264179202313201  0.3798743939472544
  0.3155707229127387  0.2265734499818635  0.8796578440633951
  0.3144223312016550  0.7270210009986684  0.3809769521460140
  0.3151876040489299  0.7267827320372291  0.8800236847278029
  0.8137440011428012  0.2269877952058081  0.3779004301681610
  0.8148955935678543  0.2266776230664433  0.8786396881616270
  0.8143985852305136  0.7271188777879516  0.3794622494844901
  0.8145419787014632  0.7266284999278270  0.8791873166785820
  0.0651969196966746  0.2265911030347851  0.1290523250422737
  0.0654002803668234  0.2266326406542305  0.6285417744014410
  0.0645403863082024  0.7268881519306731  0.1296721354942605
  0.0648684563864848  0.7270236797478162  0.6295433992919328
  0.5647684421442705  0.2257011120535353  0.1312328040704713
  0.5617515758039957  0.2248538317047704  0.6207478293053725
  0.5647261788035607  0.7271533786810451  0.1307299149527026
  0.5640021625009766  0.7278577239807618  0.6302935636215778
  0.3150352214055729  0.4763271495955195  0.1307810583003786
  0.3137920491156621  0.4777381133271419  0.6331724568223436
  0.3149270730954044  0.9767547184665020  0.1298384657940019
  0.3133993775542265  0.9755496499974896  0.6323398290886075
  0.8147812452618055  0.4764918178568536  0.1297099352680746
  0.8145532060861811  0.4756904669012130  0.6287250220538922
  0.8148098450555636  0.9768155288134821  0.1280710806608809
  0.8141299016508015  0.9772116695208624  0.6285809609299875
  0.0642911197384137  0.4759567939560796  0.3802109798229338
  0.0651191346853395  0.4763278787620067  0.8794551247001579
  0.0642571389422955  0.9772950300230789  0.3792145248572467
  0.0652219377951226  0.9768242009539350  0.8791626115083204
  0.5637355392290431  0.4756460742371900  0.3807548825590885
  0.5651523220292773  0.4758269546482836  0.8801152219222246
  0.5644902679195170  0.9785823925832418  0.3811873636675784
  0.5648140253449867  0.9773683791122068  0.8795506953169792
  0.3811890008952972  0.3144914824448861  0.2285823655482062
  0.3807561289445260  0.3137357963384275  0.7256474104277686
  0.3792156247651874  0.8142582855877123  0.2272916611838909
  0.3802104345198671  0.8142912407052663  0.7259579246499754
  0.8795512191224830  0.3148150377600416  0.2273670939468886
  0.8801143460457794  0.3151543826077159  0.7258299795705057
  0.8791624775774949  0.8152242185595071  0.2268229237534243
  0.8794544605801988  0.8151191746939972  0.7263279604754018
  0.1312333477530956  0.3147695185843133  0.4757023178825079
  0.1307304589054539  0.3147267545630044  0.9771550089751102
  0.1290529981940409  0.8151999391958213  0.4765899871865358
  0.1296746148560146  0.8145410853702089  0.9768882699926849
  0.6207487434927401  0.3117485898011481  0.4748554821006863
  0.6302942865624814  0.3140034641862570  0.9778592576738347
  0.6285417896060395  0.8154001008127381  0.4766318179787206
  0.6295434320788900  0.8148693734589614  0.9770234258565722
  0.3798723286820263  0.0647077452877767  0.4764189113071780
  0.3809781744887033  0.0644248611925491  0.9770213908822427
  0.3778996461533524  0.5637435676389657  0.4769876622609459
  0.3794622459166774  0.5643989478571712  0.9771183536849293
  0.8796586293775448  0.0655724470639427  0.4765720356044199
  0.8800239549246314  0.0651889662464242  0.9767816112245242
  0.8786402285237642  0.5648959240411173  0.4766770560814066
  0.8791870569336808  0.5645421398887365  0.9766293376380020
  0.1298384666321368  0.0649281686548520  0.2267525741300034
  0.1307819059328210  0.0650375563021299  0.7263263873422972
  0.1280714872871229  0.5648098075147630  0.2268147277920818
  0.1297104657755739  0.5647828896900933  0.7264923555117804
  0.6323392267546382  0.0634005195799148  0.2255481402146415
  0.6331744220344788  0.0637904325754022  0.7277376455735194
  0.6285823164267939  0.5641301105330001  0.2272107222706552
  0.6287245508361110  0.5645530996180312  0.7256910068606928
  0.2255501430106079  0.3823399161870924  0.3134021395932365
  0.2272109431329667  0.3785825882565419  0.8141325039332585
  0.2267539197445103  0.8798407345502639  0.3149281042286773
  0.2268129807060717  0.8780750289724040  0.8148107306268741
  0.7277358211299969  0.3831737570267109  0.3137927936087905
  0.7256896251547076  0.3787255631193247  0.8145543957866224
  0.7263268020751852  0.8807829247170318  0.3150381952459256
  0.7264915380307428  0.8797098949750577  0.8147830899568547
  0.4766326485812726  0.3785430418947513  0.0654004153175904
  0.4748508791403410  0.3707510216093439  0.5617512062410910
  0.4765906928181494  0.8790532982283565  0.0651994022309879
  0.4757021379861825  0.8812334089590337  0.5647685089399772
  0.9770235989828535  0.3795443805539449  0.0648699157685542
  0.9778577103499018  0.3802959425887664  0.5640042013872915
  0.9768882300959802  0.8796747902476412  0.0645419737552189
  0.9771526436503990  0.8807297232546318  0.5647272984881155
  0.2272929006381474  0.1292164399651909  0.0642581248928380
  0.2285827578610835  0.1311897082484776  0.5644918750050394
  0.2268232046041945  0.6291647987303080  0.0652238037560053
  0.2273666541342791  0.6295511611866687  0.5648154110638615
  0.7259566313546628  0.1302120064570573  0.0642918550058198
  0.7256465635090734  0.1307574509535030  0.5637362877428842
  0.7263283940489487  0.6294550606400193  0.0651207043545767
  0.7258286687961757  0.6301159608403069  0.5651536035742595
  0.4764178886223718  0.1298745315836598  0.3147101317269829
  0.4769873505571738  0.1279012678375651  0.8137442389724185
  0.4765728317199347  0.6296598214828180  0.3155724392774104
  0.4766775420301101  0.6286405322428763  0.8148976853340173
  0.9770203377932134  0.1309792335798790  0.3144249596198847
  0.9771190134767735  0.1294630715264518  0.8143984809593761
  0.9767815323430398  0.6300247474194407  0.3151889737641511
  0.9766285512448221  0.6291876652255084  0.8145427137307664
  0.3140722357453285  0.1294546921367825  0.2268123389605066
  0.3150311521312759  0.1322566675732944  0.7255407961893710
  0.3152551477637147  0.6289338180664856  0.2272370623522448
  0.3158756171576229  0.6312103790141776  0.7257821479723816
  0.8139678763325406  0.1279538107022447  0.2269469202183245
  0.8145465096061670  0.1290537206235385  0.7265472330982305
  0.8149404259897750  0.6286557498070593  0.2267962111384207
  0.8146006461832513  0.6291313263399871  0.7263153498878481
  0.0653399791270104  0.1292703619928730  0.4766561774326448
  0.0645596816195564  0.1296666678064042  0.9768581594204235
  0.0654504850077018  0.6288444910189668  0.4766195214586872
  0.0647005249985497  0.6295415953642802  0.9768062540230957
  0.5586502336418846  0.1362625543094964  0.4748395338584572
  0.5631306898728567  0.1320150052230389  0.9775210919504502
  0.5648615246662274  0.6291944344164619  0.4765608263054517
  0.5651918179977073  0.6295983260407283  0.9768834504901349
  0.3159979315853718  0.3793489749765584  0.4763210040954178
  0.3151750161405715  0.3802382103175361  0.9775656791230318
  0.3145907958676517  0.8805570729626027  0.4768160767270899
  0.3147616825281716  0.8803681667929979  0.9769602043020740
  0.8132390208953097  0.3780078765208827  0.4761181657373683
  0.8143593515413272  0.3789868699715413  0.9771628021517671
  0.8147648798487523  0.8788020576582980  0.4768310925711532
  0.8145289273590208  0.8791440139706310  0.9766966627813716
  0.0640913485522177  0.3790293310645581  0.2271319359700072
  0.0657484836647129  0.3797531031922361  0.7257217358936003
  0.0646249346619285  0.8795007328035069  0.2268269544757544
  0.0651035515898286  0.8800126216514528  0.7263392481633346
  0.5623213334398827  0.3783778727277607  0.2280283045374816
  0.5634053327850594  0.3804589126952109  0.7260447137494381
  0.5646206176946649  0.8808222805892711  0.2273115011500266
  0.5647127004391734  0.8815929959172308  0.7258798088926639
  0.2273117205927804  0.3146207032529276  0.1308235274349130
  0.2280259743307838  0.3123195115411050  0.6283799176301272
  0.2268278940894461  0.8146248546723598  0.1295008100471833
  0.2271292039320727  0.8140904495454748  0.6290297647902747
  0.7258787405284082  0.3147137156971596  0.1315934369678757
  0.7260473610196811  0.3134064328509112  0.6304559787443367
  0.7263366669038405  0.8151035020068207  0.1300145929790588
  0.7257219851756673  0.8157499887573181  0.6297517125461241
  0.4748397028948261  0.3086493095667251  0.3862615827423639
  0.4765594823142436  0.3148598634996276  0.8791921559351863
  0.4766565988396039  0.8153400696548374  0.3792700288485875
  0.4766189835618135  0.8154505258269893  0.8788442694091714
  0.9775232844982966  0.3131301943384699  0.3820175928333924
  0.9768822553103291  0.3151906907291888  0.8796008661704562
  0.9768575518507134  0.8145590403289731  0.3796664274043806
  0.9768061335392346  0.8146996056979958  0.8795421448515626
  0.2268118036431375  0.0640715189542433  0.3794547556871493
  0.2272363581673602  0.0652555825942542  0.8789345390607650
  0.2269464048824972  0.5639668423256694  0.3779533036882228
  0.2267961832900127  0.5649402567537365  0.8786560466469666
  0.7255414134527172  0.0650303207644924  0.3822564300089653
  0.7257800359994704  0.0658768697512997  0.8812069444720407
  0.7265474766778510  0.5645450117336566  0.3790535576792564
  0.7263156382332454  0.5645999697624120  0.8791308420359414
  0.4768158026206208  0.0645909715691104  0.1305573355976932
  0.4763192364322961  0.0659981259140139  0.6293501917651909
  0.4768302036320904  0.5647637981382303  0.1288031884299627
  0.4761165351275807  0.5632382821838036  0.6280089077330331
  0.9769603627057819  0.0647609380033884  0.1303685534328025
  0.9775653565906026  0.0651748539401638  0.6302388699910537
  0.9766965598741706  0.5645272998028972  0.1291460070102914
  0.9771624190020844  0.5643592339157948  0.6289870349006108
  0.1305571481697996  0.2268171466211939  0.3145914020820868
  0.1288004456826286  0.2268311034433879  0.8147636873543647
  0.1303686937761270  0.7269599488122793  0.3147604234190240
  0.1291451449765262  0.7266978358652736  0.8145276618109420
  0.6293472429413285  0.2263218478622662  0.3159982000536488
  0.6280042991479604  0.2261180563918543  0.8132372573464792
  0.6302385256529845  0.7275663529716425  0.3151744889537653
  0.6289863391992512  0.7271617921028337  0.8143590579609850
  0.3792694277102697  0.2266558189928389  0.0653406898151232
  0.3862616362265356  0.2248430680631444  0.5586486055782913
  0.3796660827758771  0.7268582828275143  0.0645588434296513
  0.3820162425480902  0.7275238681878875  0.5631295517194843
  0.8788436763952276  0.2266188220896268  0.0654495774106394
  0.8791923367796244  0.2265619908490635  0.5648583644797398
  0.8795410374054384  0.7268052418134943  0.0647007752120956
  0.8795990753660234  0.7268829256477431  0.5651914425756814
  0.1300122003112563  0.4763372849658509  0.0651034810935300
  0.1315930824893528  0.4758810503581117  0.5647121944499816
  0.1295003373588983  0.9768286264047319  0.0646243441567123
  0.1308227537599933  0.9773129093214905  0.5646202508564784
  0.6297529555285024  0.4757214373910372  0.0657493439716603
  0.6304571993420538  0.4760479981787498  0.5634056855262273
  0.6290297291064491  0.9771319278955062  0.0640902448323288
  0.6283794654634320  0.9780260236518785  0.5623193948750753
  0.3822568993553404  0.4755414739142125  0.3150306945568744
  0.3790517840775536  0.4765465266915854  0.8145447724718764
  0.3794553925139041  0.9768137658921390  0.3140703175516606
  0.3779522219801095  0.9769470694786904  0.8139648928487020
  0.8812087103873338  0.4757793706012592  0.3158747686073724
  0.8791314745085401  0.4763146185899885  0.8146005913221330
  0.8789345253610819  0.9772375826680459  0.3152549522271144
  0.8786571262363623  0.9767955644729582  0.8149401666089631
 
  0.00000000E+00  0.00000000E+00  0.00000000E+00
  0.00000000E+00  0.00000000E+00  0.00000000E+00
  0.00000000E+00  0.00000000E+00  0.00000000E+00
  0.00000000E+00  0.00000000E+00  0.00000000E+00
  0.00000000E+00  0.00000000E+00  0.00000000E+00
  0.00000000E+00  0.00000000E+00  0.00000000E+00
  0.00000000E+00  0.00000000E+00  0.00000000E+00
  0.00000000E+00  0.00000000E+00  0.00000000E+00
  0.00000000E+00  0.00000000E+00  0.00000000E+00
  0.00000000E+00  0.00000000E+00  0.00000000E+00
  0.00000000E+00  0.00000000E+00  0.00000000E+00
  0.00000000E+00  0.00000000E+00  0.00000000E+00
  0.00000000E+00  0.00000000E+00  0.00000000E+00
  0.00000000E+00  0.00000000E+00  0.00000000E+00
  0.00000000E+00  0.00000000E+00  0.00000000E+00
  0.00000000E+00  0.00000000E+00  0.00000000E+00
  0.00000000E+00  0.00000000E+00  0.00000000E+00
  0.00000000E+00  0.00000000E+00  0.00000000E+00
  0.00000000E+00  0.00000000E+00  0.00000000E+00
  0.00000000E+00  0.00000000E+00  0.00000000E+00
  0.00000000E+00  0.00000000E+00  0.00000000E+00
  0.00000000E+00  0.00000000E+00  0.00000000E+00
  0.00000000E+00  0.00000000E+00  0.00000000E+00
  0.00000000E+00  0.00000000E+00  0.00000000E+00
  0.00000000E+00  0.00000000E+00  0.00000000E+00
  0.00000000E+00  0.00000000E+00  0.00000000E+00
  0.00000000E+00  0.00000000E+00  0.00000000E+00
  0.00000000E+00  0.00000000E+00  0.00000000E+00
  0.00000000E+00  0.00000000E+00  0.00000000E+00
  0.00000000E+00  0.00000000E+00  0.00000000E+00
  0.00000000E+00  0.00000000E+00  0.00000000E+00
  0.00000000E+00  0.00000000E+00  0.00000000E+00
  0.00000000E+00  0.00000000E+00  0.00000000E+00
  0.00000000E+00  0.00000000E+00  0.00000000E+00
  0.00000000E+00  0.00000000E+00  0.00000000E+00
  0.00000000E+00  0.00000000E+00  0.00000000E+00
  0.00000000E+00  0.00000000E+00  0.00000000E+00
  0.00000000E+00  0.00000000E+00  0.00000000E+00
  0.00000000E+00  0.00000000E+00  0.00000000E+00
  0.00000000E+00  0.00000000E+00  0.00000000E+00
  0.00000000E+00  0.00000000E+00  0.00000000E+00
  0.00000000E+00  0.00000000E+00  0.00000000E+00
  0.00000000E+00  0.00000000E+00  0.00000000E+00
  0.00000000E+00  0.00000000E+00  0.00000000E+00
  0.00000000E+00  0.00000000E+00  0.00000000E+00
  0.00000000E+00  0.00000000E+00  0.00000000E+00
  0.00000000E+00  0.00000000E+00  0.00000000E+00
  0.00000000E+00  0.00000000E+00  0.00000000E+00
  0.00000000E+00  0.00000000E+00  0.00000000E+00
  0.00000000E+00  0.00000000E+00  0.00000000E+00
  0.00000000E+00  0.00000000E+00  0.00000000E+00
  0.00000000E+00  0.00000000E+00  0.00000000E+00
  0.00000000E+00  0.00000000E+00  0.00000000E+00
  0.00000000E+00  0.00000000E+00  0.00000000E+00
  0.00000000E+00  0.00000000E+00  0.00000000E+00
  0.00000000E+00  0.00000000E+00  0.00000000E+00
  0.00000000E+00  0.00000000E+00  0.00000000E+00
  0.00000000E+00  0.00000000E+00  0.00000000E+00
  0.00000000E+00  0.00000000E+00  0.00000000E+00
  0.00000000E+00  0.00000000E+00  0.00000000E+00
  0.00000000E+00  0.00000000E+00  0.00000000E+00
  0.00000000E+00  0.00000000E+00  0.00000000E+00
  0.00000000E+00  0.00000000E+00  0.00000000E+00
  0.00000000E+00  0.00000000E+00  0.00000000E+00
  0.00000000E+00  0.00000000E+00  0.00000000E+00
  0.00000000E+00  0.00000000E+00  0.00000000E+00
  0.00000000E+00  0.00000000E+00  0.00000000E+00
  0.00000000E+00  0.00000000E+00  0.00000000E+00
  0.00000000E+00  0.00000000E+00  0.00000000E+00
  0.00000000E+00  0.00000000E+00  0.00000000E+00
  0.00000000E+00  0.00000000E+00  0.00000000E+00
  0.00000000E+00  0.00000000E+00  0.00000000E+00
  0.00000000E+00  0.00000000E+00  0.00000000E+00
  0.00000000E+00  0.00000000E+00  0.00000000E+00
  0.00000000E+00  0.00000000E+00  0.00000000E+00
  0.00000000E+00  0.00000000E+00  0.00000000E+00
  0.00000000E+00  0.00000000E+00  0.00000000E+00
  0.00000000E+00  0.00000000E+00  0.00000000E+00
  0.00000000E+00  0.00000000E+00  0.00000000E+00
  0.00000000E+00  0.00000000E+00  0.00000000E+00
  0.00000000E+00  0.00000000E+00  0.00000000E+00
  0.00000000E+00  0.00000000E+00  0.00000000E+00
  0.00000000E+00  0.00000000E+00  0.00000000E+00
  0.00000000E+00  0.00000000E+00  0.00000000E+00
  0.00000000E+00  0.00000000E+00  0.00000000E+00
  0.00000000E+00  0.00000000E+00  0.00000000E+00
  0.00000000E+00  0.00000000E+00  0.00000000E+00
  0.00000000E+00  0.00000000E+00  0.00000000E+00
  0.00000000E+00  0.00000000E+00  0.00000000E+00
  0.00000000E+00  0.00000000E+00  0.00000000E+00
  0.00000000E+00  0.00000000E+00  0.00000000E+00
  0.00000000E+00  0.00000000E+00  0.00000000E+00
  0.00000000E+00  0.00000000E+00  0.00000000E+00
  0.00000000E+00  0.00000000E+00  0.00000000E+00
  0.00000000E+00  0.00000000E+00  0.00000000E+00
  0.00000000E+00  0.00000000E+00  0.00000000E+00
  0.00000000E+00  0.00000000E+00  0.00000000E+00
  0.00000000E+00  0.00000000E+00  0.00000000E+00
  0.00000000E+00  0.00000000E+00  0.00000000E+00
  0.00000000E+00  0.00000000E+00  0.00000000E+00
  0.00000000E+00  0.00000000E+00  0.00000000E+00
  0.00000000E+00  0.00000000E+00  0.00000000E+00
  0.00000000E+00  0.00000000E+00  0.00000000E+00
  0.00000000E+00  0.00000000E+00  0.00000000E+00
  0.00000000E+00  0.00000000E+00  0.00000000E+00
  0.00000000E+00  0.00000000E+00  0.00000000E+00
  0.00000000E+00  0.00000000E+00  0.00000000E+00
  0.00000000E+00  0.00000000E+00  0.00000000E+00
  0.00000000E+00  0.00000000E+00  0.00000000E+00
  0.00000000E+00  0.00000000E+00  0.00000000E+00
  0.00000000E+00  0.00000000E+00  0.00000000E+00
  0.00000000E+00  0.00000000E+00  0.00000000E+00
  0.00000000E+00  0.00000000E+00  0.00000000E+00
  0.00000000E+00  0.00000000E+00  0.00000000E+00
  0.00000000E+00  0.00000000E+00  0.00000000E+00
  0.00000000E+00  0.00000000E+00  0.00000000E+00
  0.00000000E+00  0.00000000E+00  0.00000000E+00
  0.00000000E+00  0.00000000E+00  0.00000000E+00
  0.00000000E+00  0.00000000E+00  0.00000000E+00
  0.00000000E+00  0.00000000E+00  0.00000000E+00
  0.00000000E+00  0.00000000E+00  0.00000000E+00
  0.00000000E+00  0.00000000E+00  0.00000000E+00
  0.00000000E+00  0.00000000E+00  0.00000000E+00
  0.00000000E+00  0.00000000E+00  0.00000000E+00
  0.00000000E+00  0.00000000E+00  0.00000000E+00
  0.00000000E+00  0.00000000E+00  0.00000000E+00
  0.00000000E+00  0.00000000E+00  0.00000000E+00
  0.00000000E+00  0.00000000E+00  0.00000000E+00
  0.00000000E+00  0.00000000E+00  0.00000000E+00
  0.00000000E+00  0.00000000E+00  0.00000000E+00
  0.00000000E+00  0.00000000E+00  0.00000000E+00
  0.00000000E+00  0.00000000E+00  0.00000000E+00
  0.00000000E+00  0.00000000E+00  0.00000000E+00
  0.00000000E+00  0.00000000E+00  0.00000000E+00
  0.00000000E+00  0.00000000E+00  0.00000000E+00
  0.00000000E+00  0.00000000E+00  0.00000000E+00
  0.00000000E+00  0.00000000E+00  0.00000000E+00
  0.00000000E+00  0.00000000E+00  0.00000000E+00
  0.00000000E+00  0.00000000E+00  0.00000000E+00
  0.00000000E+00  0.00000000E+00  0.00000000E+00
  0.00000000E+00  0.00000000E+00  0.00000000E+00
  0.00000000E+00  0.00000000E+00  0.00000000E+00
  0.00000000E+00  0.00000000E+00  0.00000000E+00
  0.00000000E+00  0.00000000E+00  0.00000000E+00
  0.00000000E+00  0.00000000E+00  0.00000000E+00
  0.00000000E+00  0.00000000E+00  0.00000000E+00
  0.00000000E+00  0.00000000E+00  0.00000000E+00
  0.00000000E+00  0.00000000E+00  0.00000000E+00
  0.00000000E+00  0.00000000E+00  0.00000000E+00
  0.00000000E+00  0.00000000E+00  0.00000000E+00
  0.00000000E+00  0.00000000E+00  0.00000000E+00
  0.00000000E+00  0.00000000E+00  0.00000000E+00
  0.00000000E+00  0.00000000E+00  0.00000000E+00
  0.00000000E+00  0.00000000E+00  0.00000000E+00
  0.00000000E+00  0.00000000E+00  0.00000000E+00
  0.00000000E+00  0.00000000E+00  0.00000000E+00
  0.00000000E+00  0.00000000E+00  0.00000000E+00
  0.00000000E+00  0.00000000E+00  0.00000000E+00
  0.00000000E+00  0.00000000E+00  0.00000000E+00
  0.00000000E+00  0.00000000E+00  0.00000000E+00
  0.00000000E+00  0.00000000E+00  0.00000000E+00
  0.00000000E+00  0.00000000E+00  0.00000000E+00
  0.00000000E+00  0.00000000E+00  0.00000000E+00
  0.00000000E+00  0.00000000E+00  0.00000000E+00
  0.00000000E+00  0.00000000E+00  0.00000000E+00
  0.00000000E+00  0.00000000E+00  0.00000000E+00
  0.00000000E+00  0.00000000E+00  0.00000000E+00
  0.00000000E+00  0.00000000E+00  0.00000000E+00
  0.00000000E+00  0.00000000E+00  0.00000000E+00
  0.00000000E+00  0.00000000E+00  0.00000000E+00
  0.00000000E+00  0.00000000E+00  0.00000000E+00
  0.00000000E+00  0.00000000E+00  0.00000000E+00
  0.00000000E+00  0.00000000E+00  0.00000000E+00
  0.00000000E+00  0.00000000E+00  0.00000000E+00
  0.00000000E+00  0.00000000E+00  0.00000000E+00
  0.00000000E+00  0.00000000E+00  0.00000000E+00
  0.00000000E+00  0.00000000E+00  0.00000000E+00
  0.00000000E+00  0.00000000E+00  0.00000000E+00
  0.00000000E+00  0.00000000E+00  0.00000000E+00
  0.00000000E+00  0.00000000E+00  0.00000000E+00
  0.00000000E+00  0.00000000E+00  0.00000000E+00
  0.00000000E+00  0.00000000E+00  0.00000000E+00
  0.00000000E+00  0.00000000E+00  0.00000000E+00
  0.00000000E+00  0.00000000E+00  0.00000000E+00
  0.00000000E+00  0.00000000E+00  0.00000000E+00
  0.00000000E+00  0.00000000E+00  0.00000000E+00
  0.00000000E+00  0.00000000E+00  0.00000000E+00
  0.00000000E+00  0.00000000E+00  0.00000000E+00
  0.00000000E+00  0.00000000E+00  0.00000000E+00
  0.00000000E+00  0.00000000E+00  0.00000000E+00
  0.00000000E+00  0.00000000E+00  0.00000000E+00
  0.00000000E+00  0.00000000E+00  0.00000000E+00
  0.00000000E+00  0.00000000E+00  0.00000000E+00
  0.00000000E+00  0.00000000E+00  0.00000000E+00
  0.00000000E+00  0.00000000E+00  0.00000000E+00
  0.00000000E+00  0.00000000E+00  0.00000000E+00
  0.00000000E+00  0.00000000E+00  0.00000000E+00
  0.00000000E+00  0.00000000E+00  0.00000000E+00
  0.00000000E+00  0.00000000E+00  0.00000000E+00
  0.00000000E+00  0.00000000E+00  0.00000000E+00
  0.00000000E+00  0.00000000E+00  0.00000000E+00
  0.00000000E+00  0.00000000E+00  0.00000000E+00
  0.00000000E+00  0.00000000E+00  0.00000000E+00
  0.00000000E+00  0.00000000E+00  0.00000000E+00
  0.00000000E+00  0.00000000E+00  0.00000000E+00
  0.00000000E+00  0.00000000E+00  0.00000000E+00
  0.00000000E+00  0.00000000E+00  0.00000000E+00