Li95 Nb33 O128                          
   1.00000000000000     
    13.7806110000000004   -0.0000030000000000   -4.8721819999999996
    -6.8903090000000002   11.9343559999999993   -4.8721850000000000
     0.0000000000000000   -0.0000040000000000   14.6165459999999996
   Li   Nb   O 
    95    33   128
Direct
  0.9968447771345481  0.1369079620259086  0.2568108317655060
  0.0000695347000317  0.1367467526586950  0.7578874285191475
  0.9999307243981690  0.6366772519570887  0.2578179281785324
  0.0031552575274034  0.6400631449995942  0.7599662708244423
  0.4999999875824486  0.1352571525004933  0.7583706923212574
  0.4999997826777900  0.6378598595326039  0.2561972326136726
  0.5000000091649923  0.6360998313688953  0.7571718990494247
  0.3619854688059263  0.3632336723586604  0.1197618328000019
  0.3635630641341976  0.3620771020956894  0.6199125803774095
  0.3611755907140406  0.8576646431748216  0.1160248257671128
  0.3628524487971703  0.8624414282350088  0.6209621255752253
  0.8570429036806004  0.3585171020202793  0.1216811205740669
  0.8659695505361213  0.3653614158210559  0.6222142913541475
  0.8627938724175195  0.8634468917880724  0.1200044191774339
  0.8648852363965389  0.8650170432097255  0.6214452639244072
  0.1340309616636404  0.9993923079055165  0.2562451739698304
  0.1429565530612393  0.0014739974625329  0.7646380749342185
  0.1351137069419082  0.5001302008941693  0.2565599889341357
  0.1372060398277668  0.5006528842529221  0.7572098384817707
  0.6388240335855855  0.9964890265517425  0.2548485669426412
  0.6371470208839014  0.9995891845025184  0.7581100132649752
  0.6380147771126161  0.5012480954399621  0.2577764806371690
  0.6364375174324550  0.4985146604813835  0.7563501864474134
  0.9965005222330561  0.2569664485216236  0.1370349800622179
  0.0005756763444822  0.2578643399997986  0.6367204663416501
  0.9994244408884896  0.7572891272602362  0.1361449519943818
  0.0034993918253292  0.7604659502464557  0.6405344878701555
  0.5000002211732877  0.2668066032490728  0.1387719901819864
  0.4999999949120451  0.2562625129188660  0.6350427950359574
  0.5000000264390252  0.7563832351192801  0.1342454021812571
  0.4999997156993885  0.7560671636352296  0.6355987619219903
  0.1361204511611263  0.2578431573259650  0.9998681445324138
  0.1360712120515259  0.2563227161467267  0.5002869520175821
  0.1380868891128628  0.7598069289917646  0.0001360747833914
  0.1372696697186058  0.7573139426341982  0.5014739237104706
  0.6370868006878823  0.2540439506450767  0.0056966374303542
  0.6418266990732988  0.2604411950977550  0.5024754903224249
  0.6365416758199629  0.7570268340968838  0.9997124518228233
  0.6383135876633972  0.7594959487127539  0.5006319883116390
  0.3581733240255005  0.1186148738998085  0.3606490914830900
  0.3629126956249422  0.1169569581712508  0.8686094456063742
  0.3616858421626148  0.6211821599102123  0.3623179643350198
  0.3634585113507427  0.6204844322520202  0.8631707959658712
  0.8619125998040715  0.1217198856354997  0.3620489736408388
  0.8627298579237603  0.1200442163159323  0.8642038055593773
  0.8638807220772193  0.6217230639217917  0.3637483284243928
  0.8639287293093076  0.6202509692370626  0.8642153573270619
  0.1185306742905041  0.3625180241383816  0.3623611401587894
  0.1208442447152507  0.3634212953287133  0.8636604008264754
  0.1203661552975177  0.8634110149920318  0.3632006435307744
  0.1321319160262817  0.8729731501043219  0.8710825503177517
  0.6255041265746399  0.3750313874651283  0.3679844309371347
  0.6206356059919287  0.3618252780001825  0.8627507572094260
  0.6213291814891377  0.8635330991434884  0.3631965636647081
  0.6200340422906905  0.8619335924895637  0.8627837145816386
  0.2599615184698436  0.1316178339199112  0.9989938944324379
  0.2563461871726602  0.1353790916625712  0.4995546612924713
  0.2574159107599954  0.6355496662927536  0.9983695091213605
  0.2568356149511786  0.6355425608495082  0.4995005948277651
  0.7531659999542271  0.1378539763699038  0.0073216801312341
  0.7574040741861907  0.1381072698457189  0.4979856399375961
  0.7570364067071580  0.6357432088972672  0.9995611861929703
  0.7593295047216344  0.6387684714804323  0.5002344923678521
  0.2489788155453070  0.9984717781882182  0.1301637331811776
  0.2593464121230937  0.9995613549521494  0.6391615475335044
  0.2558772173185133  0.5002936067610619  0.1350664590106945
  0.2580097645227895  0.4998802910797835  0.6366492112299724
  0.7550113599244526  0.0009803483710087  0.1360116428890379
  0.7579117804843492  0.0004911951268127  0.6367413823104044
  0.7572275445321068  0.4989768282183249  0.1375330232840852
  0.7597325237608317  0.5002710102706374  0.6376964937454161
  0.3744959797623082  0.2495278319009628  0.2424806861297952
  0.3793644944452836  0.2411897753337939  0.7421153733508206
  0.3786711480068234  0.7422040182702929  0.2418671782023836
  0.3799661275884603  0.7418996531916235  0.7427501703272057
  0.8678686222179479  0.2408417044360363  0.2389510618380726
  0.8796337020284710  0.2430448484803662  0.7428343670692783
  0.8791559491147254  0.7425774405923420  0.2428164870653546
  0.8814698201590829  0.7439873568656381  0.7438305034921413
  0.2402678874338235  0.2405390678045123  0.3779648537620943
  0.2427726934774057  0.2417498544896901  0.8803055725050513
  0.2420878469971299  0.7425786585010812  0.3788291879576917
  0.2449883244469220  0.7459686799083300  0.8809999704148481
  0.7510211619837506  0.2494920672437289  0.3811853295200933
  0.7406530609250339  0.2402141315082389  0.8798149466796659
  0.7441229680466535  0.7444166223167983  0.3791896180295709
  0.7419901583342821  0.7418710120611891  0.8786394921554148
  0.2406706048585079  0.3794394473578180  0.2409052605220623
  0.2429633062322765  0.3787064792027195  0.7425247526848011
  0.2425957911786014  0.8807033335669701  0.2405819139864747
  0.2468335941468425  0.8846875803134395  0.7541554352258117
  0.7400383823936352  0.3716566219766548  0.2390325225529324
  0.7436541276370292  0.3790333200627742  0.7432081556726047
  0.7425841371876984  0.8781338046809495  0.2409536023801735
  0.7431640489256139  0.8787074216072810  0.7426648886057663
  0.4999999199175562  0.1236599853239042  0.2373792474160012
  0.9989179655227574  0.9997496009001310  0.3588338253900858
  0.0003573279562588  0.0003896979709097  0.8593644046388604
  0.9996422196978756  0.5000321127440657  0.3590063920855968
  0.0010828132919656  0.5008314277845685  0.8599158184677620
  0.4999996582673418  0.9981485801335026  0.3589689011970449
  0.4999995297463684  0.9972564368644683  0.8579957289943110
  0.5000001410898562  0.5034872092125084  0.3590366757908541
  0.5000000016775061  0.4992227251420260  0.8579283698880715
  0.9983267481000127  0.3584338388038404  0.0000441873208601
  0.0018378735588840  0.3602788542024342  0.5008486639099701
  0.9981616834452680  0.8584407837805585  0.9990097593103613
  0.0016733753437563  0.8601072213185361  0.5017177988228596
  0.4999997365702527  0.3585220394359894  0.9981393336173667
  0.5000002271154074  0.3582856707852642  0.4977277518405359
  0.5000000070223791  0.8563022526468274  0.9977043361126903
  0.5000000481047238  0.8590510322352714  0.4995637775184960
  0.3698932003547100  0.0022706829958921  0.0104838646270196
  0.3587544100513043  0.9996059728524642  0.4990853363492178
  0.3591431190595600  0.4996739139280066  0.9994991413378145
  0.3582250275806658  0.4982286123480222  0.4984773496908517
  0.8573342641152593  0.9996546768518471  0.9995388456933298
  0.8594225006647989  0.0009230244383431  0.5001022775651833
  0.8584207125605801  0.4989738846048368  0.0003437523822498
  0.8613756934405927  0.5031534872840098  0.5020040605921423
  0.1386244325951935  0.1417786786639326  0.1406292360459744
  0.1415802933458679  0.1405533230552578  0.6419233496131227
  0.1405778205980468  0.6415006382141399  0.1406799586448884
  0.1426659566113244  0.6423199376057624  0.6422039479792758
  0.6301069453245702  0.1323775038519273  0.1405904272999052
  0.6412449765038915  0.1408520198277969  0.6403301151759635
  0.6408566760691130  0.6405305151724505  0.1403559223556741
  0.6417752831815520  0.6400038839877453  0.6402525507587171
  0.9990636301602294  0.3794026795798118  0.2560750033910892
  0.0005326626108513  0.3797397489447363  0.7566751115261923
  0.9994681390505846  0.8792080864265515  0.2561431712322673
  0.0009362256353285  0.8803388878445872  0.7570117363129327
  0.5000001512781367  0.3833568173306787  0.2561841210142148
  0.4999999790292549  0.3782324204620551  0.7549720825278072
  0.4999999550311927  0.8781519355488996  0.2563252105258726
  0.4999993878262075  0.8768669498371651  0.7538398936240043
  0.1202674033537647  0.1203945972312965  0.3772625066235165
  0.1201382472236219  0.1218597070113816  0.8776258099227121
  0.1207471571201992  0.6205071338646704  0.3765965011494501
  0.1212138984828997  0.6212388196422438  0.8770869834132498
  0.6250520880660488  0.1268063983184859  0.3762198254590814
  0.6203306744765413  0.1188841149141524  0.8757927449298109
  0.6213413438435964  0.6235284058681998  0.3772741839384608
  0.6207906949213609  0.6193261936921033  0.8754168303902361
  0.3749478175324512  0.0017541119931153  0.2511674429100808
  0.3796683434954673  0.9985539774549110  0.7554626698854108
  0.3786589088945860  0.5021871658571939  0.2559328093190203
  0.3792089547703483  0.4985349907231296  0.7546259238075024
  0.8787865476337160  0.0000251071364445  0.2558732848227478
  0.8792533100374911  0.9997600958778818  0.7558493539133408
  0.8798613542769189  0.5017212597622063  0.2574866185013178
  0.8797330946275679  0.5001259656799135  0.7569928651822622
  0.9998637319022237  0.2562787670259965  0.3797876063265520
  0.9994927842725758  0.2562608937812882  0.8796205445363583
  0.0005071923746769  0.7567682847977082  0.3801282732983964
  0.0001361364313084  0.7564150531184168  0.8799245152836406
  0.5000001222865791  0.2542711241450277  0.3744840844871646
  0.4999998786729662  0.2551637414335204  0.8784845941851103
  0.4999998895849345  0.7564624403778097  0.3785822999465722
  0.4999997250526391  0.7521469815516468  0.8769722950154062
  0.3800420233541004  0.2581694258611549  0.0008213713251095
  0.3794274412951282  0.2548290266469948  0.4975474789828880
  0.3782118523616234  0.7501184138505437  0.9956329115370863
  0.3791939540518143  0.7555165426354336  0.4987894547784890
  0.8782942545440307  0.2557124407245155  0.0005246113874762
  0.8812678347499983  0.2581992171106791  0.5019910686149416
  0.8779439491165419  0.7549423280009222  0.9992105480276123
  0.8801028595423475  0.7577241995892834  0.5009986096167722
  0.1198973618961929  0.3776216659771521  0.1208959966589376
  0.1220558795706523  0.3769980462607805  0.6212661901518359
  0.1187315106073754  0.8769337336594489  0.1207240987717810
  0.1217058132615492  0.8774184659012931  0.6222309009381561
  0.6199578496765454  0.3781279385402243  0.1207798714205452
  0.6205730943763967  0.3754017329478998  0.6181202019166960
  0.6217879899664567  0.8719065031151985  0.1174207177797442
  0.6208059935334589  0.8763227578169932  0.6195954892282813
  0.3720311564118859  0.1326034786680594  0.1253378558628810
  0.3769476514390462  0.1202902970109463  0.6200819941288458
  0.3765676304243826  0.6205166664798298  0.1197937937910254
  0.3770558993420750  0.6189714851772834  0.6196406240317032
  0.8742084130152534  0.1196819673791722  0.1199497631407382
  0.8773384364540178  0.1214230093146398  0.6210065600809713
  0.8766690099579577  0.6203318437427754  0.1207484868724436
  0.8800018729526613  0.6235983484898000  0.6236705360105006
  0.2558998164059076  0.3793781460886976  0.9997807951921445
  0.2561094746836048  0.3778435002028502  0.4991922302938860
  0.2568744970941168  0.8800089790626728  0.0030376287066289
  0.2563790508541075  0.8790977082482669  0.4997026175586612
  0.7556179152670381  0.3786055804012065  0.0002595779915566
  0.7591760496763627  0.3833742893931031  0.5036148950905002
  0.7553121287433981  0.8775993256339021  0.9983516415806903
  0.7566020463920324  0.8800712790767236  0.5002338899651804
  0.2554478625605512  0.9997472064425068  0.3786305593036019
  0.2581314056411159  0.0041532542713298  0.8857122034877420
  0.2557261183065336  0.4993737092916390  0.3786617396147776
  0.2557471031071543  0.4986402613566199  0.8782690892291214
  0.7560295031170270  0.9997329705934845  0.3788496212143357
  0.7550270684133267  0.9977990510496468  0.8772667678987460
  0.7589770146143948  0.5058204129232919  0.3834967941363914
  0.7559243551908494  0.4989209135091386  0.8789712758176123
  0.1199979962342184  0.2435973407798784  0.2436692007840620
  0.1233350386246457  0.2436655154801599  0.7440804906541985
  0.1226620727912220  0.7440848575650918  0.2436681181859441
  0.1257914725689773  0.7454732467314855  0.7457408856306529
  0.6279690597072758  0.2605720590684726  0.2533064446691355
  0.6230527690158212  0.2433433258602449  0.7431345414894182
  0.6234324327750258  0.7439490511256110  0.2432259892418500
  0.6229446634807871  0.7419159249659373  0.7425852006713143
  0.2410240191848771  0.2468453627336018  0.1245211488537024
  0.2440766962532379  0.2429972076519533  0.6230475839718750
  0.2439702535933748  0.7437033477029189  0.1228199358720090
  0.2449727040161065  0.7427720954846322  0.6222397391077266
  0.7418678875286844  0.2460215173109788  0.1275805226374516
  0.7445524421793550  0.2442996245159748  0.6231827303934381
  0.7442523175504192  0.7428930097089648  0.1225216304636092
  0.7442743454096785  0.7436478739743464  0.6229358398299993
  0.2408244433171589  0.1241999751024281  0.2444404042764816
  0.2443822969636784  0.1229877290577264  0.7446422265088160
  0.2433980711359354  0.6234694484545926  0.2436320694408280
  0.2446878692584420  0.6222869703127500  0.7430392340512952
  0.7431252642001240  0.1231341104038393  0.2461628045194857
  0.7436206572491244  0.1227187220137438  0.7433235675258558
  0.7441002487153838  0.6234788833288363  0.2438810335555459
  0.7438909518101298  0.6217338419286804  0.7430827730913308
  0.9977047302937763  0.9994158695260751  0.1134861954447501
  0.9998274436014611  0.0003860492291565  0.6139314484320764
  0.0001728293108769  0.5005586734879159  0.1141040144377143
  0.0022957024631225  0.5017106470691459  0.6157810720791659
  0.5000001020952709  0.9833402889885861  0.1207508039083507
  0.4999999123890007  0.9995151632620605  0.6126404933552081
  0.5000000485701150  0.5007893288699918  0.1135317382025676
  0.5000000908186379  0.4971280091792352  0.6115994432717926
  0.9979333340818641  0.1136285342003944  0.9993552104967947
  0.0002769043952995  0.1143988057145719  0.5002651497513853
  0.9997231007217451  0.6141219248908953  0.9999877537736026
  0.0020664344606018  0.6156946659881584  0.5014206891996125
  0.4999987074934680  0.1106397460190962  0.9971028451538118
  0.4999999879937604  0.1138239155005678  0.4989574305548032
  0.4999992434026552  0.6129961095359633  0.9987499679483065
  0.5000003801749671  0.6139762072867114  0.5001973998590330
  0.1132376047188686  0.0006290759055574  0.0013513843414401
  0.1142132452347937  0.0000246413681850  0.5002754040382769
  0.1141882382700103  0.5001895445485331  0.0001023315443902
  0.1148050073514426  0.4998625458949419  0.4997693295005305
  0.6138009566513816  0.9966009867326306  0.9975503650858855
  0.6154573671048809  0.0006542566457099  0.4997680940328948
  0.6142413838895209  0.4996494720456752  0.9991276623427225
  0.6140949247746050  0.4994842299871749  0.4979930612094350
  0.3859055879587814  0.3853896338310747  0.3838983442080135
  0.3857591645229519  0.3854080122888135  0.8848866077229403
  0.3845424440145422  0.8851965608851415  0.3843105770455679
  0.3861983165420853  0.8827996013684185  0.8837488990811337
  0.8867640748380978  0.3873923166466682  0.3881140548242357
  0.8857875870292276  0.3858121311007707  0.8860625915246771
  0.8858122227416132  0.8860016957908670  0.3859142828298090
  0.8851951925193191  0.8850578194983072  0.8849647612596740
 
  0.00000000E+00  0.00000000E+00  0.00000000E+00
  0.00000000E+00  0.00000000E+00  0.00000000E+00
  0.00000000E+00  0.00000000E+00  0.00000000E+00
  0.00000000E+00  0.00000000E+00  0.00000000E+00
  0.00000000E+00  0.00000000E+00  0.00000000E+00
  0.00000000E+00  0.00000000E+00  0.00000000E+00
  0.00000000E+00  0.00000000E+00  0.00000000E+00
  0.00000000E+00  0.00000000E+00  0.00000000E+00
  0.00000000E+00  0.00000000E+00  0.00000000E+00
  0.00000000E+00  0.00000000E+00  0.00000000E+00
  0.00000000E+00  0.00000000E+00  0.00000000E+00
  0.00000000E+00  0.00000000E+00  0.00000000E+00
  0.00000000E+00  0.00000000E+00  0.00000000E+00
  0.00000000E+00  0.00000000E+00  0.00000000E+00
  0.00000000E+00  0.00000000E+00  0.00000000E+00
  0.00000000E+00  0.00000000E+00  0.00000000E+00
  0.00000000E+00  0.00000000E+00  0.00000000E+00
  0.00000000E+00  0.00000000E+00  0.00000000E+00
  0.00000000E+00  0.00000000E+00  0.00000000E+00
  0.00000000E+00  0.00000000E+00  0.00000000E+00
  0.00000000E+00  0.00000000E+00  0.00000000E+00
  0.00000000E+00  0.00000000E+00  0.00000000E+00
  0.00000000E+00  0.00000000E+00  0.00000000E+00
  0.00000000E+00  0.00000000E+00  0.00000000E+00
  0.00000000E+00  0.00000000E+00  0.00000000E+00
  0.00000000E+00  0.00000000E+00  0.00000000E+00
  0.00000000E+00  0.00000000E+00  0.00000000E+00
  0.00000000E+00  0.00000000E+00  0.00000000E+00
  0.00000000E+00  0.00000000E+00  0.00000000E+00
  0.00000000E+00  0.00000000E+00  0.00000000E+00
  0.00000000E+00  0.00000000E+00  0.00000000E+00
  0.00000000E+00  0.00000000E+00  0.00000000E+00
  0.00000000E+00  0.00000000E+00  0.00000000E+00
  0.00000000E+00  0.00000000E+00  0.00000000E+00
  0.00000000E+00  0.00000000E+00  0.00000000E+00
  0.00000000E+00  0.00000000E+00  0.00000000E+00
  0.00000000E+00  0.00000000E+00  0.00000000E+00
  0.00000000E+00  0.00000000E+00  0.00000000E+00
  0.00000000E+00  0.00000000E+00  0.00000000E+00
  0.00000000E+00  0.00000000E+00  0.00000000E+00
  0.00000000E+00  0.00000000E+00  0.00000000E+00
  0.00000000E+00  0.00000000E+00  0.00000000E+00
  0.00000000E+00  0.00000000E+00  0.00000000E+00
  0.00000000E+00  0.00000000E+00  0.00000000E+00
  0.00000000E+00  0.00000000E+00  0.00000000E+00
  0.00000000E+00  0.00000000E+00  0.00000000E+00
  0.00000000E+00  0.00000000E+00  0.00000000E+00
  0.00000000E+00  0.00000000E+00  0.00000000E+00
  0.00000000E+00  0.00000000E+00  0.00000000E+00
  0.00000000E+00  0.00000000E+00  0.00000000E+00
  0.00000000E+00  0.00000000E+00  0.00000000E+00
  0.00000000E+00  0.00000000E+00  0.00000000E+00
  0.00000000E+00  0.00000000E+00  0.00000000E+00
  0.00000000E+00  0.00000000E+00  0.00000000E+00
  0.00000000E+00  0.00000000E+00  0.00000000E+00
  0.00000000E+00  0.00000000E+00  0.00000000E+00
  0.00000000E+00  0.00000000E+00  0.00000000E+00
  0.00000000E+00  0.00000000E+00  0.00000000E+00
  0.00000000E+00  0.00000000E+00  0.00000000E+00
  0.00000000E+00  0.00000000E+00  0.00000000E+00
  0.00000000E+00  0.00000000E+00  0.00000000E+00
  0.00000000E+00  0.00000000E+00  0.00000000E+00
  0.00000000E+00  0.00000000E+00  0.00000000E+00
  0.00000000E+00  0.00000000E+00  0.00000000E+00
  0.00000000E+00  0.00000000E+00  0.00000000E+00
  0.00000000E+00  0.00000000E+00  0.00000000E+00
  0.00000000E+00  0.00000000E+00  0.00000000E+00
  0.00000000E+00  0.00000000E+00  0.00000000E+00
  0.00000000E+00  0.00000000E+00  0.00000000E+00
  0.00000000E+00  0.00000000E+00  0.00000000E+00
  0.00000000E+00  0.00000000E+00  0.00000000E+00
  0.00000000E+00  0.00000000E+00  0.00000000E+00
  0.00000000E+00  0.00000000E+00  0.00000000E+00
  0.00000000E+00  0.00000000E+00  0.00000000E+00
  0.00000000E+00  0.00000000E+00  0.00000000E+00
  0.00000000E+00  0.00000000E+00  0.00000000E+00
  0.00000000E+00  0.00000000E+00  0.00000000E+00
  0.00000000E+00  0.00000000E+00  0.00000000E+00
  0.00000000E+00  0.00000000E+00  0.00000000E+00
  0.00000000E+00  0.00000000E+00  0.00000000E+00
  0.00000000E+00  0.00000000E+00  0.00000000E+00
  0.00000000E+00  0.00000000E+00  0.00000000E+00
  0.00000000E+00  0.00000000E+00  0.00000000E+00
  0.00000000E+00  0.00000000E+00  0.00000000E+00
  0.00000000E+00  0.00000000E+00  0.00000000E+00
  0.00000000E+00  0.00000000E+00  0.00000000E+00
  0.00000000E+00  0.00000000E+00  0.00000000E+00
  0.00000000E+00  0.00000000E+00  0.00000000E+00
  0.00000000E+00  0.00000000E+00  0.00000000E+00
  0.00000000E+00  0.00000000E+00  0.00000000E+00
  0.00000000E+00  0.00000000E+00  0.00000000E+00
  0.00000000E+00  0.00000000E+00  0.00000000E+00
  0.00000000E+00  0.00000000E+00  0.00000000E+00
  0.00000000E+00  0.00000000E+00  0.00000000E+00
  0.00000000E+00  0.00000000E+00  0.00000000E+00
  0.00000000E+00  0.00000000E+00  0.00000000E+00
  0.00000000E+00  0.00000000E+00  0.00000000E+00
  0.00000000E+00  0.00000000E+00  0.00000000E+00
  0.00000000E+00  0.00000000E+00  0.00000000E+00
  0.00000000E+00  0.00000000E+00  0.00000000E+00
  0.00000000E+00  0.00000000E+00  0.00000000E+00
  0.00000000E+00  0.00000000E+00  0.00000000E+00
  0.00000000E+00  0.00000000E+00  0.00000000E+00
  0.00000000E+00  0.00000000E+00  0.00000000E+00
  0.00000000E+00  0.00000000E+00  0.00000000E+00
  0.00000000E+00  0.00000000E+00  0.00000000E+00
  0.00000000E+00  0.00000000E+00  0.00000000E+00
  0.00000000E+00  0.00000000E+00  0.00000000E+00
  0.00000000E+00  0.00000000E+00  0.00000000E+00
  0.00000000E+00  0.00000000E+00  0.00000000E+00
  0.00000000E+00  0.00000000E+00  0.00000000E+00
  0.00000000E+00  0.00000000E+00  0.00000000E+00
  0.00000000E+00  0.00000000E+00  0.00000000E+00
  0.00000000E+00  0.00000000E+00  0.00000000E+00
  0.00000000E+00  0.00000000E+00  0.00000000E+00
  0.00000000E+00  0.00000000E+00  0.00000000E+00
  0.00000000E+00  0.00000000E+00  0.00000000E+00
  0.00000000E+00  0.00000000E+00  0.00000000E+00
  0.00000000E+00  0.00000000E+00  0.00000000E+00
  0.00000000E+00  0.00000000E+00  0.00000000E+00
  0.00000000E+00  0.00000000E+00  0.00000000E+00
  0.00000000E+00  0.00000000E+00  0.00000000E+00
  0.00000000E+00  0.00000000E+00  0.00000000E+00
  0.00000000E+00  0.00000000E+00  0.00000000E+00
  0.00000000E+00  0.00000000E+00  0.00000000E+00
  0.00000000E+00  0.00000000E+00  0.00000000E+00
  0.00000000E+00  0.00000000E+00  0.00000000E+00
  0.00000000E+00  0.00000000E+00  0.00000000E+00
  0.00000000E+00  0.00000000E+00  0.00000000E+00
  0.00000000E+00  0.00000000E+00  0.00000000E+00
  0.00000000E+00  0.00000000E+00  0.00000000E+00
  0.00000000E+00  0.00000000E+00  0.00000000E+00
  0.00000000E+00  0.00000000E+00  0.00000000E+00
  0.00000000E+00  0.00000000E+00  0.00000000E+00
  0.00000000E+00  0.00000000E+00  0.00000000E+00
  0.00000000E+00  0.00000000E+00  0.00000000E+00
  0.00000000E+00  0.00000000E+00  0.00000000E+00
  0.00000000E+00  0.00000000E+00  0.00000000E+00
  0.00000000E+00  0.00000000E+00  0.00000000E+00
  0.00000000E+00  0.00000000E+00  0.00000000E+00
  0.00000000E+00  0.00000000E+00  0.00000000E+00
  0.00000000E+00  0.00000000E+00  0.00000000E+00
  0.00000000E+00  0.00000000E+00  0.00000000E+00
  0.00000000E+00  0.00000000E+00  0.00000000E+00
  0.00000000E+00  0.00000000E+00  0.00000000E+00
  0.00000000E+00  0.00000000E+00  0.00000000E+00
  0.00000000E+00  0.00000000E+00  0.00000000E+00
  0.00000000E+00  0.00000000E+00  0.00000000E+00
  0.00000000E+00  0.00000000E+00  0.00000000E+00
  0.00000000E+00  0.00000000E+00  0.00000000E+00
  0.00000000E+00  0.00000000E+00  0.00000000E+00
  0.00000000E+00  0.00000000E+00  0.00000000E+00
  0.00000000E+00  0.00000000E+00  0.00000000E+00
  0.00000000E+00  0.00000000E+00  0.00000000E+00
  0.00000000E+00  0.00000000E+00  0.00000000E+00
  0.00000000E+00  0.00000000E+00  0.00000000E+00
  0.00000000E+00  0.00000000E+00  0.00000000E+00
  0.00000000E+00  0.00000000E+00  0.00000000E+00
  0.00000000E+00  0.00000000E+00  0.00000000E+00
  0.00000000E+00  0.00000000E+00  0.00000000E+00
  0.00000000E+00  0.00000000E+00  0.00000000E+00
  0.00000000E+00  0.00000000E+00  0.00000000E+00
  0.00000000E+00  0.00000000E+00  0.00000000E+00
  0.00000000E+00  0.00000000E+00  0.00000000E+00
  0.00000000E+00  0.00000000E+00  0.00000000E+00
  0.00000000E+00  0.00000000E+00  0.00000000E+00
  0.00000000E+00  0.00000000E+00  0.00000000E+00
  0.00000000E+00  0.00000000E+00  0.00000000E+00
  0.00000000E+00  0.00000000E+00  0.00000000E+00
  0.00000000E+00  0.00000000E+00  0.00000000E+00
  0.00000000E+00  0.00000000E+00  0.00000000E+00
  0.00000000E+00  0.00000000E+00  0.00000000E+00
  0.00000000E+00  0.00000000E+00  0.00000000E+00
  0.00000000E+00  0.00000000E+00  0.00000000E+00
  0.00000000E+00  0.00000000E+00  0.00000000E+00
  0.00000000E+00  0.00000000E+00  0.00000000E+00
  0.00000000E+00  0.00000000E+00  0.00000000E+00
  0.00000000E+00  0.00000000E+00  0.00000000E+00
  0.00000000E+00  0.00000000E+00  0.00000000E+00
  0.00000000E+00  0.00000000E+00  0.00000000E+00
  0.00000000E+00  0.00000000E+00  0.00000000E+00
  0.00000000E+00  0.00000000E+00  0.00000000E+00
  0.00000000E+00  0.00000000E+00  0.00000000E+00
  0.00000000E+00  0.00000000E+00  0.00000000E+00
  0.00000000E+00  0.00000000E+00  0.00000000E+00
  0.00000000E+00  0.00000000E+00  0.00000000E+00
  0.00000000E+00  0.00000000E+00  0.00000000E+00
  0.00000000E+00  0.00000000E+00  0.00000000E+00
  0.00000000E+00  0.00000000E+00  0.00000000E+00
  0.00000000E+00  0.00000000E+00  0.00000000E+00
  0.00000000E+00  0.00000000E+00  0.00000000E+00
  0.00000000E+00  0.00000000E+00  0.00000000E+00
  0.00000000E+00  0.00000000E+00  0.00000000E+00
  0.00000000E+00  0.00000000E+00  0.00000000E+00
  0.00000000E+00  0.00000000E+00  0.00000000E+00
  0.00000000E+00  0.00000000E+00  0.00000000E+00
  0.00000000E+00  0.00000000E+00  0.00000000E+00
  0.00000000E+00  0.00000000E+00  0.00000000E+00
  0.00000000E+00  0.00000000E+00  0.00000000E+00
  0.00000000E+00  0.00000000E+00  0.00000000E+00
  0.00000000E+00  0.00000000E+00  0.00000000E+00
  0.00000000E+00  0.00000000E+00  0.00000000E+00
  0.00000000E+00  0.00000000E+00  0.00000000E+00
  0.00000000E+00  0.00000000E+00  0.00000000E+00
  0.00000000E+00  0.00000000E+00  0.00000000E+00
  0.00000000E+00  0.00000000E+00  0.00000000E+00
  0.00000000E+00  0.00000000E+00  0.00000000E+00
  0.00000000E+00  0.00000000E+00  0.00000000E+00
  0.00000000E+00  0.00000000E+00  0.00000000E+00
  0.00000000E+00  0.00000000E+00  0.00000000E+00
  0.00000000E+00  0.00000000E+00  0.00000000E+00
  0.00000000E+00  0.00000000E+00  0.00000000E+00
  0.00000000E+00  0.00000000E+00  0.00000000E+00
  0.00000000E+00  0.00000000E+00  0.00000000E+00
  0.00000000E+00  0.00000000E+00  0.00000000E+00
  0.00000000E+00  0.00000000E+00  0.00000000E+00
  0.00000000E+00  0.00000000E+00  0.00000000E+00
  0.00000000E+00  0.00000000E+00  0.00000000E+00
  0.00000000E+00  0.00000000E+00  0.00000000E+00
  0.00000000E+00  0.00000000E+00  0.00000000E+00
  0.00000000E+00  0.00000000E+00  0.00000000E+00
  0.00000000E+00  0.00000000E+00  0.00000000E+00
  0.00000000E+00  0.00000000E+00  0.00000000E+00
  0.00000000E+00  0.00000000E+00  0.00000000E+00
  0.00000000E+00  0.00000000E+00  0.00000000E+00
  0.00000000E+00  0.00000000E+00  0.00000000E+00
  0.00000000E+00  0.00000000E+00  0.00000000E+00
  0.00000000E+00  0.00000000E+00  0.00000000E+00
  0.00000000E+00  0.00000000E+00  0.00000000E+00
  0.00000000E+00  0.00000000E+00  0.00000000E+00
  0.00000000E+00  0.00000000E+00  0.00000000E+00
  0.00000000E+00  0.00000000E+00  0.00000000E+00
  0.00000000E+00  0.00000000E+00  0.00000000E+00
  0.00000000E+00  0.00000000E+00  0.00000000E+00
  0.00000000E+00  0.00000000E+00  0.00000000E+00
  0.00000000E+00  0.00000000E+00  0.00000000E+00
  0.00000000E+00  0.00000000E+00  0.00000000E+00
  0.00000000E+00  0.00000000E+00  0.00000000E+00
  0.00000000E+00  0.00000000E+00  0.00000000E+00
  0.00000000E+00  0.00000000E+00  0.00000000E+00
  0.00000000E+00  0.00000000E+00  0.00000000E+00
  0.00000000E+00  0.00000000E+00  0.00000000E+00
  0.00000000E+00  0.00000000E+00  0.00000000E+00
  0.00000000E+00  0.00000000E+00  0.00000000E+00
  0.00000000E+00  0.00000000E+00  0.00000000E+00
  0.00000000E+00  0.00000000E+00  0.00000000E+00
  0.00000000E+00  0.00000000E+00  0.00000000E+00
  0.00000000E+00  0.00000000E+00  0.00000000E+00
  0.00000000E+00  0.00000000E+00  0.00000000E+00
  0.00000000E+00  0.00000000E+00  0.00000000E+00
  0.00000000E+00  0.00000000E+00  0.00000000E+00
  0.00000000E+00  0.00000000E+00  0.00000000E+00
  0.00000000E+00  0.00000000E+00  0.00000000E+00
  0.00000000E+00  0.00000000E+00  0.00000000E+00
  0.00000000E+00  0.00000000E+00  0.00000000E+00
  0.00000000E+00  0.00000000E+00  0.00000000E+00
