Li95 Nb33 O128                          
   1.00000000000000     
    13.7806110000000004   -0.0000030000000000   -4.8721819999999996
    -6.8903090000000002   11.9343559999999993   -4.8721850000000000
     0.0000000000000000   -0.0000040000000000   14.6165459999999996
   Li   Nb   O 
    95    33   128
Direct
  0.9995737376377249  0.1362417638919595  0.2574412493964289
  0.0002401765228157  0.1369012315173919  0.7577169850174883
  0.9997597741937128  0.6366610116167237  0.2574768043504392
  0.0004259459857821  0.6366678177234419  0.7578673718427638
  0.5000002962585270  0.1378883326378144  0.7580235393613037
  0.4999998621036212  0.6373081242420326  0.2569911830778011
  0.4999997745062927  0.6355203236842684  0.7570395208156953
  0.3632395489712223  0.3645808127333012  0.1202496735069545
  0.3635786940691759  0.3628149415605080  0.6204332916210333
  0.3588770203787632  0.8571030453593664  0.1185975772924053
  0.3625842433796507  0.8624448280984112  0.6202539089669514
  0.8647648215906827  0.3649547741805677  0.1214431245415000
  0.8664546352835245  0.3650865219009845  0.6221989646094386
  0.8633311267576147  0.8633396188595981  0.1208804947398860
  0.8641930533973579  0.8638461927156413  0.6210609903653861
  0.1335448171586506  0.9986321072246582  0.2557441197562227
  0.1352353129561621  0.0001902228755668  0.7566784243135061
  0.1358068110863826  0.4996530582269685  0.2568678349426179
  0.1366687720436843  0.5000084062599157  0.7575491479575405
  0.6411228283251518  0.9982258882363126  0.2597205459854450
  0.6374157187894127  0.9998604171645340  0.7576697559134544
  0.6367602026998895  0.5013413994208022  0.2570101936971838
  0.6364209049908709  0.4992359355374703  0.7568544649956763
  0.9993996419719693  0.2577151201483758  0.1364263614732479
  0.0004584860640549  0.2577026419779003  0.6368349507286766
  0.9995413491229286  0.7572441763871041  0.1363764062758506
  0.0005999507995327  0.7583152727751568  0.6370264165658455
  0.5000000682904044  0.2624839281244675  0.1353499423454565
  0.5000000425954170  0.2568764439902722  0.6360237209863868
  0.4999998392515650  0.7566732604147930  0.1370148121452530
  0.4999996600132306  0.7560701108063697  0.6361436114629697
  0.1366524028890623  0.2578606281582481  0.9998674605353557
  0.1372410813917426  0.2570087440315234  0.5000121985149804
  0.1336758249379528  0.7555369589838890  0.9995807785809347
  0.1361895366030126  0.7568783398777086  0.4998429367814623
  0.6383471814728026  0.2598313213638122  0.0011774837789815
  0.6438209939842849  0.2623173071370388  0.5069623628629429
  0.6377113798871790  0.7566474860406345  0.0004242678382695
  0.6379025682949901  0.7583333575055136  0.5002531567059449
  0.3561789523183236  0.1184963352920150  0.3631411647297540
  0.3616532240087267  0.1214846208189257  0.8628309741554432
  0.3620972797996274  0.6204308136610237  0.3623506329986981
  0.3622882468193396  0.6189358570273527  0.8627126461466972
  0.8663239755753551  0.1218611735359900  0.3659049755502366
  0.8638104817910133  0.1206888708178937  0.8636534320483307
  0.8633475439769569  0.6212083148273990  0.3632149719065154
  0.8627585878445743  0.6197676403115437  0.8627708938430985
  0.1204172774403247  0.3629675250872992  0.3627141429094820
  0.1209254646651772  0.3633835657287179  0.8632743240352170
  0.1203933776603066  0.8631753460043115  0.3629824427880948
  0.1191922855423257  0.8628924730799170  0.8629191768762183
  0.6256080022754773  0.3745849453505912  0.3680181890322913
  0.6210680192220295  0.3639694206338930  0.8633795376855602
  0.6218506246315201  0.8633522902316244  0.3643256160001158
  0.6212552868491414  0.8623366925260072  0.8621443391530406
  0.2575319406694661  0.1379376592807517  0.0007892163228576
  0.2562818208045314  0.1357549908557374  0.4999485394235563
  0.2555787203766471  0.6340809837037753  0.9995296341872475
  0.2565873258998010  0.6355419909291911  0.4996337857399098
  0.7591779920838277  0.1381533223551514  0.0000053831533151
  0.7595227823456199  0.1384052844618395  0.5005655049385069
  0.7567954132924797  0.6360705761546654  0.9996992485374392
  0.7584281347137320  0.6375332790436374  0.4996497584083883
  0.2462359438903334  0.9962431799654752  0.1303193284325062
  0.2566004675702871  0.0002462661084692  0.6363252141443922
  0.2566252752201734  0.5000621293538217  0.1357746183817099
  0.2585821400873130  0.5002995432154478  0.6370620752266447
  0.7586441670421493  0.9991561408084806  0.1375240076900255
  0.7580213981871751  0.0001863689824120  0.6371025747708927
  0.7575696663430307  0.5003951650963785  0.1366795127419422
  0.7586968739143174  0.5001017204907328  0.6369683573477758
  0.3743917969142387  0.2489769804855229  0.2424102831284429
  0.3789327267910068  0.2429018682929893  0.7423125938492134
  0.3781495114979165  0.7415015748938387  0.2424748961839782
  0.3787451129992121  0.7410818982405303  0.7408895496698520
  0.8808079078014615  0.2437004671650769  0.2437272656580163
  0.8796066862525862  0.2427817949656017  0.7425890575112604
  0.8790747483267936  0.7424581617046044  0.2423488354811454
  0.8795827001536125  0.7425499939114744  0.7422966599877583
  0.2413029450065167  0.2414045775959863  0.3782717412852250
  0.2424313039809007  0.2428258093100197  0.8791100983630926
  0.2419783462932443  0.7421650257794994  0.3790814873880990
  0.2413555486767365  0.7405117544534363  0.8788799387660404
  0.7537640315739935  0.2500068681875902  0.3840836032364763
  0.7433995759964773  0.2436454336429605  0.8797250239319254
  0.7433744660135559  0.7434367840309051  0.3791496993207488
  0.7414176795485261  0.7417172032804444  0.8784799626464945
  0.2415716435911293  0.3791053544418403  0.2412214723713006
  0.2432037225758990  0.3792750543234931  0.7429030667945398
  0.2404769862323803  0.8788827163944077  0.2410426464728843
  0.2408218884584485  0.8789757355342260  0.7408271651503000
  0.7424679095852724  0.3804063255093126  0.2432571867679627
  0.7437179084000505  0.3794733166320512  0.7436665691060043
  0.7444212417307412  0.8785027460441839  0.2439509006286400
  0.7434124165840075  0.8789547498732091  0.7430462389657464
  0.4999999671685558  0.1234100686122304  0.2509859900318148
  0.9999664403925408  0.9997663109479618  0.3591411515916079
  0.0000034823477932  0.0001425864280975  0.8591706810717383
  0.9999965123212888  0.5001388412179963  0.3591668680937374
  0.0000335062626817  0.4997996641238345  0.8591744229448395
  0.5000000008395773  0.9977209404115612  0.3622825179673370
  0.5000001446977436  0.0003986830568579  0.8588698313877003
  0.4999999018194714  0.5016240846929136  0.3587731980711837
  0.4999998498758274  0.4997455190071776  0.8585410622634981
  0.9999011540160936  0.3588881016795185  0.9996588616848712
  0.0026969843537401  0.3603977864898340  0.5011822329515780
  0.9973031594936543  0.8577010243629033  0.9984854132576686
  0.0000989188966685  0.8589870622201872  0.4997579467957962
  0.4999996713886574  0.3594047321674907  0.9991399398596741
  0.4999999705936204  0.3593172445807724  0.4997483576695672
  0.5000000566612997  0.8565812415212193  0.9993236517444402
  0.4999999612296335  0.8584067252238512  0.5006384656706970
  0.3574642667556489  0.9968089034340863  0.9968478349439565
  0.3586039586336440  0.9998321693069698  0.5002336179588767
  0.3591410976790854  0.5001625502703959  0.9999656438973332
  0.3584413189959221  0.4987177261748101  0.4987355181689139
  0.8581503623411990  0.9998119453437013  0.0000132460951079
  0.8596697911721449  0.0003815527194675  0.5009879567579461
  0.8589901141627507  0.5002719220915353  0.0000625124481601
  0.8609568954380862  0.5018980269671687  0.5013168254881109
  0.1390437435691751  0.1409416771348617  0.1403603256334733
  0.1410110250779724  0.1412832315131354  0.6410728573952582
  0.1403306701759135  0.6407120320075421  0.1413184162504919
  0.1418500025246061  0.6416617717913127  0.6418628574971592
  0.6425360409355747  0.1393449856706752  0.1393840826763153
  0.6413963210191440  0.1412283626099011  0.6416298478010631
  0.6408589012724022  0.6410217936204887  0.1408247798379918
  0.6415585377573620  0.6402761460942870  0.6402940619838589
  0.0000134985480571  0.3794803479149778  0.2563207935074203
  0.0004038415163379  0.3794927155352994  0.7562618078820620
  0.9995960279456639  0.8790889606405941  0.2558582104832681
  0.9999862487218820  0.8794668293571064  0.7563075831608259
  0.5000000474312358  0.3805017844701908  0.2561924466118271
  0.5000000930666815  0.3790736766604326  0.7554526430186286
  0.4999998766028639  0.8801789020470210  0.2561834940758843
  0.5000000235538664  0.8793992975867440  0.7569713948691401
  0.1205309635204657  0.1203256583568901  0.3766758005408377
  0.1206492964144843  0.1209070096679170  0.8772008701042395
  0.1207184968661537  0.6205912673426468  0.3769022197495318
  0.1206843224408587  0.6207552470845172  0.8770867834325671
  0.6281432588766833  0.1263762625634044  0.3784968629113621
  0.6207678754359236  0.1212941196067874  0.8779664139710022
  0.6210496086194439  0.6217611072096716  0.3768391000610478
  0.6204495232935656  0.6204557373033381  0.8761897763324384
  0.3718566403208641  0.9982327521391312  0.2503531390124607
  0.3792323357798750  0.0005260330021741  0.7571986115325942
  0.3789504721176797  0.5007115972630913  0.2557894566941883
  0.3795499020866018  0.5000056559604289  0.7557403518402381
  0.8793158493212374  0.0000709891017294  0.2564025495639797
  0.8792816639543659  0.9998729416016445  0.7561839538338901
  0.8793508235877070  0.5002576658040212  0.2565513299838997
  0.8794691166586475  0.4997946107969682  0.7561445979084809
  0.0009199432143774  0.2564996635879098  0.3797802196716091
  0.9999190639792062  0.2559593487320981  0.8791732350446537
  0.0000808244980561  0.7560403368615241  0.3792542035714206
  0.9990801552999429  0.7555801221586407  0.8788602952908278
  0.5000001648175498  0.2514316384453679  0.3764871179246043
  0.4999987814994213  0.2558769901435909  0.8790430355669940
  0.4999998092842048  0.7565150228860560  0.3793577053488590
  0.5000000935829192  0.7553167658783764  0.8791036637656831
  0.3795888873901347  0.2565774696329370  0.9998859925295989
  0.3791345917829645  0.2547969408246757  0.4980911090473441
  0.3790080612010129  0.7550297479204033  0.9995078711943322
  0.3792557213784704  0.7555035676630482  0.5001006265144170
  0.8791986923457173  0.2562317803322216  0.0000223520373765
  0.8819995531591402  0.2576931184088522  0.5017329199414533
  0.8773150190515935  0.7550658223908044  0.9989536078581125
  0.8795638734551261  0.7564672138575546  0.5001309991255098
  0.1204362850211069  0.3769036198454501  0.1205670423690322
  0.1226850843404534  0.3777510470960692  0.6216387740160911
  0.1180007506565772  0.8756936312212389  0.1197334410664865
  0.1208015319088673  0.8770337622489848  0.6208239052563087
  0.6204125902185353  0.3769916469111934  0.1202969623537697
  0.6208655093227122  0.3756624344667330  0.6189564916159114
  0.6209919217114290  0.8760217782671020  0.1205000012951771
  0.6207441789228625  0.8762479501041440  0.6208448649140124
  0.3752237828225162  0.1257997101437596  0.1217269256382423
  0.3768013356064870  0.1206084272063919  0.6207866488890659
  0.3767377953848339  0.6208722758095178  0.1205719918702428
  0.3773063017667724  0.6195107574777836  0.6202421814574919
  0.8758408290582054  0.1205328902838048  0.1204953598584453
  0.8771871512693323  0.1210939933180910  0.6212043856459033
  0.8766080628331210  0.6207285062796970  0.1206141675700110
  0.8782529671746531  0.6219525126685284  0.6218324474690817
  0.2562131229581155  0.3794402076259900  0.9998481825827739
  0.2564120533142216  0.3783998854711186  0.4994247261684137
  0.2553917262659979  0.8792707708471852  0.0001564136244667
  0.2564161646642873  0.8791939386014178  0.5004325365614193
  0.7563400069948898  0.3795262549733280  0.0002889864584361
  0.7579099634121462  0.3811805843750733  0.5013898102975602
  0.7550404311994328  0.8789241918812181  0.9995448016610453
  0.7563357080299795  0.8795470268318084  0.5004505402659021
  0.2553196996382425  0.9993881390318151  0.3793239487634779
  0.2549020371661896  0.0001253895750679  0.8796889348623509
  0.2558871944679595  0.4992979681152860  0.3788014803331592
  0.2561121051525674  0.4999360846660323  0.8792019040346730
  0.7568711387407845  0.0000156452897500  0.3797716216908782
  0.7552965760734054  0.9995949823398149  0.8789806201882442
  0.7573388911507166  0.5019585308808203  0.3807534769909466
  0.7558096353725077  0.4995023203346278  0.8788733082071545
  0.1217474565081531  0.2436999884778572  0.2435798479557931
  0.1233920863834399  0.2441209172921361  0.7440063254565672
  0.1228133033614682  0.7439072146223893  0.2440174966630693
  0.1241594087485467  0.7446921359231879  0.7446542281071942
  0.6247763448614450  0.2505760902507674  0.2465033636031464
  0.6231996986812405  0.2438081363010980  0.7439855499220300
  0.6232622545965825  0.7441347685136321  0.2438342962175213
  0.6226938735704763  0.7422044199708608  0.7429359593005387
  0.2426614958105446  0.2446199675292959  0.1234147457768486
  0.2441904067942815  0.2436931692789841  0.6230637659073892
  0.2431291386248944  0.7431446612002119  0.1229003608655432
  0.2447037265614611  0.7442988638377699  0.6236842824599762
  0.7450980841949075  0.2452239338698377  0.1247872196253184
  0.7446805524413520  0.2440685335322854  0.6240045056221746
  0.7438879376590606  0.7438246688774655  0.1230902083810790
  0.7441130181474449  0.7434110915548615  0.6229147906022519
  0.2420909736292529  0.1232714114567415  0.2434804491180032
  0.2436598170219639  0.1231865482788237  0.7439496368543175
  0.2436646807370622  0.6232116343939751  0.2441151366617902
  0.2449598696639939  0.6238842432252696  0.7445045602069911
  0.7446084291931854  0.1238804956307007  0.2447662060194062
  0.7435839758109424  0.1227777089223565  0.7440163368646964
  0.7437871379175292  0.6232279116529469  0.2436353998679479
  0.7435878971399603  0.6219873730575074  0.7430119893860052
  0.9985605795228736  0.9995380555901363  0.1136718374101164
  0.0001717227626656  0.0001520178481513  0.6143745843218085
  0.9998287412385878  0.4999804350613672  0.1142029851773003
  0.0014387800550324  0.5009769256539016  0.6151109578662712
  0.5000001056079952  0.9971527603080190  0.1194423650605430
  0.5000000815374790  0.9995510463085253  0.6133500740717821
  0.5000000393928943  0.5001604555692793  0.1139907164561507
  0.4999999114313880  0.4969069341432473  0.6122326822737847
  0.9989846757747287  0.1136938869150441  0.9996165662885801
  0.0001311741369534  0.1143108926737924  0.5001391709720835
  0.9998688687433059  0.6141797440861083  0.0000079871635066
  0.0010156224424378  0.6147092118018236  0.5006319119843354
  0.5000005097360827  0.1127700625252217  0.0029533897069172
  0.5000001816508401  0.1140571986654280  0.4995696076986533
  0.4999996897677121  0.6140694855778293  0.9996727743059779
  0.4999999712003387  0.6129720320427623  0.4997902141432107
  0.1138330216095440  0.9996124603406287  0.0005059175013713
  0.1142746902363072  0.0000415800854583  0.5000661548351317
  0.1142017428384747  0.4999596293980701  0.0000939433503007
  0.1150342004149607  0.5005867850853036  0.5004132519689293
  0.6137000552025285  0.0003801878660497  0.0013320558242214
  0.6149688694686049  0.0001864133543137  0.5000064348102597
  0.6141466303015051  0.4999865048552579  0.9995788346132741
  0.6141649929936364  0.4985720493948165  0.4982527970227082
  0.3858352005763876  0.3844070955143266  0.3840879938777562
  0.3858529250144542  0.3858393610301079  0.8854322729484920
  0.3850311226612249  0.8852175084805722  0.3850375942525659
  0.3862997160978239  0.8866802528071887  0.8876324543182790
  0.8861678273623639  0.3857790056772217  0.3866722662865030
  0.8857258551438676  0.3857668774488090  0.8857913576407057
  0.8857985982262093  0.8857579908223983  0.3858925117555927
  0.8849664391786334  0.8855527151688634  0.8853794686440821
 
  0.00000000E+00  0.00000000E+00  0.00000000E+00
  0.00000000E+00  0.00000000E+00  0.00000000E+00
  0.00000000E+00  0.00000000E+00  0.00000000E+00
  0.00000000E+00  0.00000000E+00  0.00000000E+00
  0.00000000E+00  0.00000000E+00  0.00000000E+00
  0.00000000E+00  0.00000000E+00  0.00000000E+00
  0.00000000E+00  0.00000000E+00  0.00000000E+00
  0.00000000E+00  0.00000000E+00  0.00000000E+00
  0.00000000E+00  0.00000000E+00  0.00000000E+00
  0.00000000E+00  0.00000000E+00  0.00000000E+00
  0.00000000E+00  0.00000000E+00  0.00000000E+00
  0.00000000E+00  0.00000000E+00  0.00000000E+00
  0.00000000E+00  0.00000000E+00  0.00000000E+00
  0.00000000E+00  0.00000000E+00  0.00000000E+00
  0.00000000E+00  0.00000000E+00  0.00000000E+00
  0.00000000E+00  0.00000000E+00  0.00000000E+00
  0.00000000E+00  0.00000000E+00  0.00000000E+00
  0.00000000E+00  0.00000000E+00  0.00000000E+00
  0.00000000E+00  0.00000000E+00  0.00000000E+00
  0.00000000E+00  0.00000000E+00  0.00000000E+00
  0.00000000E+00  0.00000000E+00  0.00000000E+00
  0.00000000E+00  0.00000000E+00  0.00000000E+00
  0.00000000E+00  0.00000000E+00  0.00000000E+00
  0.00000000E+00  0.00000000E+00  0.00000000E+00
  0.00000000E+00  0.00000000E+00  0.00000000E+00
  0.00000000E+00  0.00000000E+00  0.00000000E+00
  0.00000000E+00  0.00000000E+00  0.00000000E+00
  0.00000000E+00  0.00000000E+00  0.00000000E+00
  0.00000000E+00  0.00000000E+00  0.00000000E+00
  0.00000000E+00  0.00000000E+00  0.00000000E+00
  0.00000000E+00  0.00000000E+00  0.00000000E+00
  0.00000000E+00  0.00000000E+00  0.00000000E+00
  0.00000000E+00  0.00000000E+00  0.00000000E+00
  0.00000000E+00  0.00000000E+00  0.00000000E+00
  0.00000000E+00  0.00000000E+00  0.00000000E+00
  0.00000000E+00  0.00000000E+00  0.00000000E+00
  0.00000000E+00  0.00000000E+00  0.00000000E+00
  0.00000000E+00  0.00000000E+00  0.00000000E+00
  0.00000000E+00  0.00000000E+00  0.00000000E+00
  0.00000000E+00  0.00000000E+00  0.00000000E+00
  0.00000000E+00  0.00000000E+00  0.00000000E+00
  0.00000000E+00  0.00000000E+00  0.00000000E+00
  0.00000000E+00  0.00000000E+00  0.00000000E+00
  0.00000000E+00  0.00000000E+00  0.00000000E+00
  0.00000000E+00  0.00000000E+00  0.00000000E+00
  0.00000000E+00  0.00000000E+00  0.00000000E+00
  0.00000000E+00  0.00000000E+00  0.00000000E+00
  0.00000000E+00  0.00000000E+00  0.00000000E+00
  0.00000000E+00  0.00000000E+00  0.00000000E+00
  0.00000000E+00  0.00000000E+00  0.00000000E+00
  0.00000000E+00  0.00000000E+00  0.00000000E+00
  0.00000000E+00  0.00000000E+00  0.00000000E+00
  0.00000000E+00  0.00000000E+00  0.00000000E+00
  0.00000000E+00  0.00000000E+00  0.00000000E+00
  0.00000000E+00  0.00000000E+00  0.00000000E+00
  0.00000000E+00  0.00000000E+00  0.00000000E+00
  0.00000000E+00  0.00000000E+00  0.00000000E+00
  0.00000000E+00  0.00000000E+00  0.00000000E+00
  0.00000000E+00  0.00000000E+00  0.00000000E+00
  0.00000000E+00  0.00000000E+00  0.00000000E+00
  0.00000000E+00  0.00000000E+00  0.00000000E+00
  0.00000000E+00  0.00000000E+00  0.00000000E+00
  0.00000000E+00  0.00000000E+00  0.00000000E+00
  0.00000000E+00  0.00000000E+00  0.00000000E+00
  0.00000000E+00  0.00000000E+00  0.00000000E+00
  0.00000000E+00  0.00000000E+00  0.00000000E+00
  0.00000000E+00  0.00000000E+00  0.00000000E+00
  0.00000000E+00  0.00000000E+00  0.00000000E+00
  0.00000000E+00  0.00000000E+00  0.00000000E+00
  0.00000000E+00  0.00000000E+00  0.00000000E+00
  0.00000000E+00  0.00000000E+00  0.00000000E+00
  0.00000000E+00  0.00000000E+00  0.00000000E+00
  0.00000000E+00  0.00000000E+00  0.00000000E+00
  0.00000000E+00  0.00000000E+00  0.00000000E+00
  0.00000000E+00  0.00000000E+00  0.00000000E+00
  0.00000000E+00  0.00000000E+00  0.00000000E+00
  0.00000000E+00  0.00000000E+00  0.00000000E+00
  0.00000000E+00  0.00000000E+00  0.00000000E+00
  0.00000000E+00  0.00000000E+00  0.00000000E+00
  0.00000000E+00  0.00000000E+00  0.00000000E+00
  0.00000000E+00  0.00000000E+00  0.00000000E+00
  0.00000000E+00  0.00000000E+00  0.00000000E+00
  0.00000000E+00  0.00000000E+00  0.00000000E+00
  0.00000000E+00  0.00000000E+00  0.00000000E+00
  0.00000000E+00  0.00000000E+00  0.00000000E+00
  0.00000000E+00  0.00000000E+00  0.00000000E+00
  0.00000000E+00  0.00000000E+00  0.00000000E+00
  0.00000000E+00  0.00000000E+00  0.00000000E+00
  0.00000000E+00  0.00000000E+00  0.00000000E+00
  0.00000000E+00  0.00000000E+00  0.00000000E+00
  0.00000000E+00  0.00000000E+00  0.00000000E+00
  0.00000000E+00  0.00000000E+00  0.00000000E+00
  0.00000000E+00  0.00000000E+00  0.00000000E+00
  0.00000000E+00  0.00000000E+00  0.00000000E+00
  0.00000000E+00  0.00000000E+00  0.00000000E+00
  0.00000000E+00  0.00000000E+00  0.00000000E+00
  0.00000000E+00  0.00000000E+00  0.00000000E+00
  0.00000000E+00  0.00000000E+00  0.00000000E+00
  0.00000000E+00  0.00000000E+00  0.00000000E+00
  0.00000000E+00  0.00000000E+00  0.00000000E+00
  0.00000000E+00  0.00000000E+00  0.00000000E+00
  0.00000000E+00  0.00000000E+00  0.00000000E+00
  0.00000000E+00  0.00000000E+00  0.00000000E+00
  0.00000000E+00  0.00000000E+00  0.00000000E+00
  0.00000000E+00  0.00000000E+00  0.00000000E+00
  0.00000000E+00  0.00000000E+00  0.00000000E+00
  0.00000000E+00  0.00000000E+00  0.00000000E+00
  0.00000000E+00  0.00000000E+00  0.00000000E+00
  0.00000000E+00  0.00000000E+00  0.00000000E+00
  0.00000000E+00  0.00000000E+00  0.00000000E+00
  0.00000000E+00  0.00000000E+00  0.00000000E+00
  0.00000000E+00  0.00000000E+00  0.00000000E+00
  0.00000000E+00  0.00000000E+00  0.00000000E+00
  0.00000000E+00  0.00000000E+00  0.00000000E+00
  0.00000000E+00  0.00000000E+00  0.00000000E+00
  0.00000000E+00  0.00000000E+00  0.00000000E+00
  0.00000000E+00  0.00000000E+00  0.00000000E+00
  0.00000000E+00  0.00000000E+00  0.00000000E+00
  0.00000000E+00  0.00000000E+00  0.00000000E+00
  0.00000000E+00  0.00000000E+00  0.00000000E+00
  0.00000000E+00  0.00000000E+00  0.00000000E+00
  0.00000000E+00  0.00000000E+00  0.00000000E+00
  0.00000000E+00  0.00000000E+00  0.00000000E+00
  0.00000000E+00  0.00000000E+00  0.00000000E+00
  0.00000000E+00  0.00000000E+00  0.00000000E+00
  0.00000000E+00  0.00000000E+00  0.00000000E+00
  0.00000000E+00  0.00000000E+00  0.00000000E+00
  0.00000000E+00  0.00000000E+00  0.00000000E+00
  0.00000000E+00  0.00000000E+00  0.00000000E+00
  0.00000000E+00  0.00000000E+00  0.00000000E+00
  0.00000000E+00  0.00000000E+00  0.00000000E+00
  0.00000000E+00  0.00000000E+00  0.00000000E+00
  0.00000000E+00  0.00000000E+00  0.00000000E+00
  0.00000000E+00  0.00000000E+00  0.00000000E+00
  0.00000000E+00  0.00000000E+00  0.00000000E+00
  0.00000000E+00  0.00000000E+00  0.00000000E+00
  0.00000000E+00  0.00000000E+00  0.00000000E+00
  0.00000000E+00  0.00000000E+00  0.00000000E+00
  0.00000000E+00  0.00000000E+00  0.00000000E+00
  0.00000000E+00  0.00000000E+00  0.00000000E+00
  0.00000000E+00  0.00000000E+00  0.00000000E+00
  0.00000000E+00  0.00000000E+00  0.00000000E+00
  0.00000000E+00  0.00000000E+00  0.00000000E+00
  0.00000000E+00  0.00000000E+00  0.00000000E+00
  0.00000000E+00  0.00000000E+00  0.00000000E+00
  0.00000000E+00  0.00000000E+00  0.00000000E+00
  0.00000000E+00  0.00000000E+00  0.00000000E+00
  0.00000000E+00  0.00000000E+00  0.00000000E+00
  0.00000000E+00  0.00000000E+00  0.00000000E+00
  0.00000000E+00  0.00000000E+00  0.00000000E+00
  0.00000000E+00  0.00000000E+00  0.00000000E+00
  0.00000000E+00  0.00000000E+00  0.00000000E+00
  0.00000000E+00  0.00000000E+00  0.00000000E+00
  0.00000000E+00  0.00000000E+00  0.00000000E+00
  0.00000000E+00  0.00000000E+00  0.00000000E+00
  0.00000000E+00  0.00000000E+00  0.00000000E+00
  0.00000000E+00  0.00000000E+00  0.00000000E+00
  0.00000000E+00  0.00000000E+00  0.00000000E+00
  0.00000000E+00  0.00000000E+00  0.00000000E+00
  0.00000000E+00  0.00000000E+00  0.00000000E+00
  0.00000000E+00  0.00000000E+00  0.00000000E+00
  0.00000000E+00  0.00000000E+00  0.00000000E+00
  0.00000000E+00  0.00000000E+00  0.00000000E+00
  0.00000000E+00  0.00000000E+00  0.00000000E+00
  0.00000000E+00  0.00000000E+00  0.00000000E+00
  0.00000000E+00  0.00000000E+00  0.00000000E+00
  0.00000000E+00  0.00000000E+00  0.00000000E+00
  0.00000000E+00  0.00000000E+00  0.00000000E+00
  0.00000000E+00  0.00000000E+00  0.00000000E+00
  0.00000000E+00  0.00000000E+00  0.00000000E+00
  0.00000000E+00  0.00000000E+00  0.00000000E+00
  0.00000000E+00  0.00000000E+00  0.00000000E+00
  0.00000000E+00  0.00000000E+00  0.00000000E+00
  0.00000000E+00  0.00000000E+00  0.00000000E+00
  0.00000000E+00  0.00000000E+00  0.00000000E+00
  0.00000000E+00  0.00000000E+00  0.00000000E+00
  0.00000000E+00  0.00000000E+00  0.00000000E+00
  0.00000000E+00  0.00000000E+00  0.00000000E+00
  0.00000000E+00  0.00000000E+00  0.00000000E+00
  0.00000000E+00  0.00000000E+00  0.00000000E+00
  0.00000000E+00  0.00000000E+00  0.00000000E+00
  0.00000000E+00  0.00000000E+00  0.00000000E+00
  0.00000000E+00  0.00000000E+00  0.00000000E+00
  0.00000000E+00  0.00000000E+00  0.00000000E+00
  0.00000000E+00  0.00000000E+00  0.00000000E+00
  0.00000000E+00  0.00000000E+00  0.00000000E+00
  0.00000000E+00  0.00000000E+00  0.00000000E+00
  0.00000000E+00  0.00000000E+00  0.00000000E+00
  0.00000000E+00  0.00000000E+00  0.00000000E+00
  0.00000000E+00  0.00000000E+00  0.00000000E+00
  0.00000000E+00  0.00000000E+00  0.00000000E+00
  0.00000000E+00  0.00000000E+00  0.00000000E+00
  0.00000000E+00  0.00000000E+00  0.00000000E+00
  0.00000000E+00  0.00000000E+00  0.00000000E+00
  0.00000000E+00  0.00000000E+00  0.00000000E+00
  0.00000000E+00  0.00000000E+00  0.00000000E+00
  0.00000000E+00  0.00000000E+00  0.00000000E+00
  0.00000000E+00  0.00000000E+00  0.00000000E+00
  0.00000000E+00  0.00000000E+00  0.00000000E+00
  0.00000000E+00  0.00000000E+00  0.00000000E+00
  0.00000000E+00  0.00000000E+00  0.00000000E+00
  0.00000000E+00  0.00000000E+00  0.00000000E+00
  0.00000000E+00  0.00000000E+00  0.00000000E+00
  0.00000000E+00  0.00000000E+00  0.00000000E+00
  0.00000000E+00  0.00000000E+00  0.00000000E+00
  0.00000000E+00  0.00000000E+00  0.00000000E+00
  0.00000000E+00  0.00000000E+00  0.00000000E+00
  0.00000000E+00  0.00000000E+00  0.00000000E+00
  0.00000000E+00  0.00000000E+00  0.00000000E+00
  0.00000000E+00  0.00000000E+00  0.00000000E+00
  0.00000000E+00  0.00000000E+00  0.00000000E+00
  0.00000000E+00  0.00000000E+00  0.00000000E+00
  0.00000000E+00  0.00000000E+00  0.00000000E+00
  0.00000000E+00  0.00000000E+00  0.00000000E+00
  0.00000000E+00  0.00000000E+00  0.00000000E+00
  0.00000000E+00  0.00000000E+00  0.00000000E+00
  0.00000000E+00  0.00000000E+00  0.00000000E+00
  0.00000000E+00  0.00000000E+00  0.00000000E+00
  0.00000000E+00  0.00000000E+00  0.00000000E+00
  0.00000000E+00  0.00000000E+00  0.00000000E+00
  0.00000000E+00  0.00000000E+00  0.00000000E+00
  0.00000000E+00  0.00000000E+00  0.00000000E+00
  0.00000000E+00  0.00000000E+00  0.00000000E+00
  0.00000000E+00  0.00000000E+00  0.00000000E+00
  0.00000000E+00  0.00000000E+00  0.00000000E+00
  0.00000000E+00  0.00000000E+00  0.00000000E+00
  0.00000000E+00  0.00000000E+00  0.00000000E+00
  0.00000000E+00  0.00000000E+00  0.00000000E+00
  0.00000000E+00  0.00000000E+00  0.00000000E+00
  0.00000000E+00  0.00000000E+00  0.00000000E+00
  0.00000000E+00  0.00000000E+00  0.00000000E+00
  0.00000000E+00  0.00000000E+00  0.00000000E+00
  0.00000000E+00  0.00000000E+00  0.00000000E+00
  0.00000000E+00  0.00000000E+00  0.00000000E+00
  0.00000000E+00  0.00000000E+00  0.00000000E+00
  0.00000000E+00  0.00000000E+00  0.00000000E+00
  0.00000000E+00  0.00000000E+00  0.00000000E+00
  0.00000000E+00  0.00000000E+00  0.00000000E+00
  0.00000000E+00  0.00000000E+00  0.00000000E+00
  0.00000000E+00  0.00000000E+00  0.00000000E+00
  0.00000000E+00  0.00000000E+00  0.00000000E+00
  0.00000000E+00  0.00000000E+00  0.00000000E+00
  0.00000000E+00  0.00000000E+00  0.00000000E+00
  0.00000000E+00  0.00000000E+00  0.00000000E+00
  0.00000000E+00  0.00000000E+00  0.00000000E+00
  0.00000000E+00  0.00000000E+00  0.00000000E+00
  0.00000000E+00  0.00000000E+00  0.00000000E+00
  0.00000000E+00  0.00000000E+00  0.00000000E+00
  0.00000000E+00  0.00000000E+00  0.00000000E+00
  0.00000000E+00  0.00000000E+00  0.00000000E+00
  0.00000000E+00  0.00000000E+00  0.00000000E+00
  0.00000000E+00  0.00000000E+00  0.00000000E+00
  0.00000000E+00  0.00000000E+00  0.00000000E+00
  0.00000000E+00  0.00000000E+00  0.00000000E+00
  0.00000000E+00  0.00000000E+00  0.00000000E+00
  0.00000000E+00  0.00000000E+00  0.00000000E+00
