Li63 Nb65 O192                          
   1.00000000000000     
    15.1469600000000000   -0.0012470000000000   -0.0011610000000000
     1.0576070000000000   15.1097420000000007   -0.0009680000000000
     1.0576360000000000    0.9859670000000000   15.0777149999999995
   Li   Nb   O 
    63    65   192
Direct
  0.2489119770724812  0.2475606552992744  0.2488502425302954
  0.2485001557607305  0.2490818017579741  0.7517926983809531
  0.2501200325775059  0.7506680029855559  0.2497709496158578
  0.2490953820928965  0.7506352879980227  0.7507908952066700
  0.7529345062550092  0.2482591697071399  0.2493559599330695
  0.7501852836062710  0.2494362267005101  0.7508859489778885
  0.7509196279596111  0.7503311221090954  0.2496903697206108
  0.7507017085421168  0.7500550932570604  0.7508271765033427
  0.0001728944473598  0.2498777230186349  0.0007437192112718
  0.0000197230456962  0.2484472984258801  0.5011908031437642
  0.0003123096505462  0.7502197510492650  0.0002763973415796
  0.0006638181163012  0.7501554788119051  0.4998972024918089
  0.4980277297162985  0.2499737204750687  0.9997931354656160
  0.4999119946885244  0.7506780402516284  0.0000617566289876
  0.5007237490818355  0.7493158087463527  0.4977658057877150
  0.2497064456336773  0.0000957842807665  0.0006566654541018
  0.2475787965149507  0.9978657907377553  0.4976515210765129
  0.2498542932614498  0.5006475418581360  0.0002661343545540
  0.2498606743407308  0.5017541702274144  0.4991938960583084
  0.7506039087724545  0.9994307788308561  0.0002547552292995
  0.7522490257147467  0.9982051203320879  0.4986355747238136
  0.7506120675559131  0.5004603533111194  0.0003295511925856
  0.7524273849981356  0.5010509715717646  0.4988606117500680
  0.0007161943315097  0.9998533170276218  0.2501231592952848
  0.0002526154707212  0.9997238162323967  0.7507062976122398
  0.0009597203277139  0.5005736975224337  0.2495056074780919
  0.0000468601306949  0.5005808737532362  0.7504986886435177
  0.4987721966509540  0.9987570940904433  0.2488662243205795
  0.4995561656350134  0.9998211910950303  0.7523347343022024
  0.4991343357763967  0.5023960678913681  0.2486369941601509
  0.4992853734295508  0.5024713447962625  0.7509012913740847
  0.0005626063889181  0.9999002710765055  0.0001053225669310
  0.0005549572454626  0.0002255885519702  0.4996342636919806
  0.0004093830749028  0.5002513388999930  0.0001218883699039
  0.9999998816270050  0.5016790918527150  0.4999206051925640
  0.4997067325677236  0.9988339841260654  0.0001579367551514
  0.4989234861229690  0.9987285653199081  0.4965368370191001
  0.4995506150714846  0.5005255235069370  0.0010095717855947
  0.4989012374607924  0.5020061405861753  0.4986803199405756
  0.2499070796764116  0.0000771172703722  0.2499907706131665
  0.2471615850308453  0.9974040749118842  0.7537723558948812
  0.2483908509047978  0.5030301494087510  0.2484700724492299
  0.2491944610100347  0.5005596145917650  0.7516915502005617
  0.7525287538272423  0.9985191865850922  0.2483567189694327
  0.7516583677040032  0.9996398217024733  0.7506229947935878
  0.7518825499400137  0.5033541101494521  0.2492649363131818
  0.7506547395945802  0.5006413952971229  0.7505614483513412
  0.0008090136723311  0.2495920650479349  0.2485235831566115
  0.0004224682221903  0.2498755402405450  0.7502696586999775
  0.0002791424081323  0.7505800837814789  0.2499023879881079
  0.0000584581721483  0.7501608915141773  0.7501904760362095
  0.4983895462783963  0.2480710607202141  0.2477783799773832
  0.4998698806151225  0.2489390041689745  0.7524713319398799
  0.4997346349166349  0.7507091915289124  0.2503516986193972
  0.4999701864577801  0.7496751634987362  0.7520524869979184
  0.2504419970700908  0.2495621215617803  0.0005005570806702
  0.2490014377801231  0.2467641101888560  0.4989923840661774
  0.2497964585426331  0.7502032476407905  0.0006055239168887
  0.2485295678077719  0.7499158168203266  0.4992778434059630
  0.7520455378489217  0.2496398520045133  0.9997979130018280
  0.7505278904129113  0.2502384167801779  0.4984017886568992
  0.7502194558357118  0.7501239831918767  0.0001952338678137
  0.7507841490012197  0.7509876865825618  0.4994242109641434
  0.4988901766120222  0.2523378328183412  0.5082982071399300
  0.1092485698752981  0.1087505962708732  0.1087679803394366
  0.1084412445272989  0.1086159616008189  0.6091441487656937
  0.1086202347373444  0.6091399439649550  0.1086144836539162
  0.1087933408685871  0.6092526663369000  0.6089545676628703
  0.6085818751020184  0.1091615431108224  0.1059757213080204
  0.6110214251349859  0.1014833797773704  0.6073300654155176
  0.6086206277959789  0.6095233529649633  0.1089192004838111
  0.6092480946347294  0.6096359620655107  0.6084605902466294
  0.3587761811791026  0.1083352579246295  0.3587417982164069
  0.3587184735951041  0.1083488266689656  0.8598535560992531
  0.3585147297639750  0.6098063423367890  0.3587894779866971
  0.3584990527671295  0.6087978252512087  0.8593684830083248
  0.8596794765738238  0.1090123418523774  0.3582992570671095
  0.8591085645585110  0.1086682550415645  0.8586472515805070
  0.8591110621239793  0.6093377350616009  0.3585695776346469
  0.8587908785439282  0.6087656538447774  0.8587683007396762
  0.1070523980473013  0.3585205467332102  0.3597052013371780
  0.1088391061463838  0.3586205646189100  0.8593556283220423
  0.1089004178246356  0.8592111692349462  0.3587351358053894
  0.1083653034392995  0.8585008414825737  0.8592486716458936
  0.6103877918530500  0.3624585087414829  0.3506256387143054
  0.6086550251513287  0.3589433022533512  0.8596145164766611
  0.6092250341396976  0.8589994174621580  0.3586128053166036
  0.6090328282932873  0.8587257695842183  0.8592555019467056
  0.3587162496079657  0.3589375806382762  0.1090274437182899
  0.3527633490688800  0.3582651263409815  0.6111442233848337
  0.3588118507823026  0.8588851543108262  0.1091779714934802
  0.3601392081621952  0.8536604183673404  0.6078617599191674
  0.8594479460929563  0.3591171027185851  0.1086569862723934
  0.8591134802207492  0.3587613235940310  0.6086149766676741
  0.8591365172030194  0.8586400147672535  0.1085154580015342
  0.8594082498859734  0.8589307329622216  0.6086187071632452
  0.3523642515733414  0.3612507354955241  0.3555593646970507
  0.3583291903441292  0.3590629423199232  0.8592405943432482
  0.3588861232634102  0.8591187742287829  0.3586917096354654
  0.3584061091266122  0.8588467906649271  0.8594361360626408
  0.8604648250799869  0.3586013406880895  0.3587519885996500
  0.8588922957532716  0.3586618800869985  0.8590367047286449
  0.8593134379233689  0.8587288648342053  0.3586310071389818
  0.8587877965206872  0.8586541830151404  0.8589117774685988
  0.1092838612541343  0.3588879690757594  0.1090966096347543
  0.1070264761302724  0.3597533966077577  0.6088738594499148
  0.1089221291123081  0.8589078545371152  0.1089142033426711
  0.1088837525466104  0.8588461444781075  0.6090450885160266
  0.6096214848578327  0.3580137971507398  0.1068110011417929
  0.6106343785723851  0.3632191579708532  0.6111068214448920
  0.6089735720005720  0.8589191875256148  0.1090097282034606
  0.6086512795217729  0.8564149373231018  0.6098088330619689
  0.3588314842499045  0.1086435288894023  0.1091930151049283
  0.3545785287395873  0.0972781617137954  0.6129252987288467
  0.3587680610632304  0.6092841552317836  0.1085779125211559
  0.3583719484623060  0.6076411284226992  0.6093327277384830
  0.8594120970362980  0.1083047433202680  0.1086824995224731
  0.8591709703297923  0.1084443837027180  0.6089006706043065
  0.8591740951512392  0.6088396576841362  0.1083730805791134
  0.8591335140932870  0.6090355247861368  0.6088054151986526
  0.1090424056992845  0.1088856647423739  0.3588431087256936
  0.1084665113270518  0.1088585932080122  0.8591787625645608
  0.1089632071927156  0.6093776986197668  0.3584691776029700
  0.1086083874060364  0.6089093948783884  0.8587860631445210
  0.6115338759581093  0.1068901779283564  0.3514614177669060
  0.6087921993707823  0.1086747992199122  0.8586123843192652
  0.6093156779637496  0.6097345046950267  0.3582165749654180
  0.6088058924007385  0.6090478507348962  0.8590205485183304
  0.3145033008888021  0.2261534973402135  0.3794159036969802
  0.3150552434958271  0.2265128082914813  0.8795717424456981
  0.3143551696149629  0.7269103520669944  0.3800082192943748
  0.3149168781477982  0.7266040602777011  0.8799193055986407
  0.8140885681659000  0.2270236054589887  0.3782442780629864
  0.8145281891818996  0.2265935717603043  0.8790393281340840
  0.8146850079429413  0.7267866123727913  0.3793987632776066
  0.8145257607956680  0.7265647655264544  0.8793886470879997
  0.0648641921844870  0.2266508887333103  0.1292551683102161
  0.0644860786187351  0.2267443666260149  0.6290904879468684
  0.0645276366063143  0.7267009581776733  0.1296244097306669
  0.0643353026888462  0.7267440207068177  0.6295163715066892
  0.5644020153341458  0.2260440556091439  0.1298841654619167
  0.5618234834099098  0.2278658796580970  0.6277593164306623
  0.5645812090335411  0.7267909857676713  0.1300777180664880
  0.5636469976706522  0.7275579408701631  0.6297429240509871
  0.3147238383536717  0.4763574982858216  0.1300339384695803
  0.3136424985923227  0.4776768658935424  0.6304936769950302
  0.3145957023964172  0.9766013505799478  0.1296756965714820
  0.3127237110965595  0.9748888074409621  0.6306600789727312
  0.8146619479589816  0.4765136736584807  0.1295746229907095
  0.8144720795512939  0.4763456400148129  0.6290917911184977
  0.8146038329736598  0.9766499728287243  0.1288548790467701
  0.8138281896440418  0.9770057583709644  0.6286446119325575
  0.0645633835893449  0.4761777868576260  0.3799245678996073
  0.0648766170681796  0.4764107128581472  0.8795586439067904
  0.0643955790654971  0.9769246974554306  0.3793533505090281
  0.0647189239476873  0.9766022081413723  0.8795149375495654
  0.5645259783473406  0.4762458576421906  0.3799813451950058
  0.5649825420558443  0.4763093277097852  0.8807006882969546
  0.5645932455664919  0.9767344531507050  0.3790505589639110
  0.5646067674266675  0.9768894909022023  0.8794396308212526
  0.3805605151219638  0.3142546266658712  0.2272310431513347
  0.3811991613635399  0.3132237296908968  0.7254785101167940
  0.3794456965966404  0.8142989869617026  0.2267745348538952
  0.3799322885800365  0.8141708478284784  0.7261777838222585
  0.8796906962042641  0.3147500351090784  0.2269679973168550
  0.8795861466367256  0.3149171656992493  0.7261886744046819
  0.8795348224249011  0.8147953400910453  0.2265616205965557
  0.8794955286393815  0.8149220422764358  0.7264692070902541
  0.1307642877508783  0.3147035054193950  0.4764383453459402
  0.1301167624793678  0.3147132442346603  0.9767775022609442
  0.1293130212478033  0.8148428865671136  0.4765594640223654
  0.1295201396171706  0.8144014910253290  0.9767815374995550
  0.6244340763743139  0.3108247735091680  0.4746262779568440
  0.6302261918027838  0.3143396980838631  0.9778448119661860
  0.6292359841850654  0.8147372047552679  0.4766430688816712
  0.6295601737179624  0.8144829088911933  0.9767168860014550
  0.3796863216441508  0.0640536803709963  0.4763676625996141
  0.3801116886763225  0.0641422115593855  0.9768426240019110
  0.3788625764899436  0.5643571150959232  0.4764176991570039
  0.3794490378380786  0.5642747824711591  0.9768283700073042
  0.8792470403968267  0.0651588963679046  0.4764527276844106
  0.8796897397681320  0.0648600785898807  0.9765144893532707
  0.8790540174198682  0.5647534539126369  0.4766177765601398
  0.8794539862890360  0.5644218662741025  0.9766076778105557
  0.1296396008625891  0.0648467299973774  0.2265884704740557
  0.1295258473502017  0.0645053153133830  0.7266867903152061
  0.1289556002134589  0.5646072345131046  0.2266110323578303
  0.1296248557396709  0.5646869743939433  0.7265175489245763
  0.6302694552209900  0.0639609994452925  0.2259209860708893
  0.6300228813381707  0.0646176424538680  0.7264901090460398
  0.6290666598733665  0.5641033094255974  0.2268329268231213
  0.6293185773282630  0.5650554663160392  0.7260916479414021
  0.2266529185286856  0.3811739617759500  0.3143667130335075
  0.2270209620680106  0.3787830065004059  0.8142118685513964
  0.2266678188901281  0.8797933554042530  0.3146447626335842
  0.2265969883868735  0.8785020452901335  0.8148338808585009
  0.7275239458574703  0.3823828026600395  0.3138919507931135
  0.7260879625501033  0.3792801286301426  0.8148517805865652
  0.7268002830991804  0.8799623085030035  0.3145676772791930
  0.7265081301507053  0.8796463350669370  0.8146324548333155
  0.4766221737456746  0.3792142658659046  0.0649439720396288
  0.4772680254770805  0.3811963289586799  0.5633980437576298
  0.4766120390617132  0.8793612959029744  0.0647191858764629
  0.4760119476956746  0.8805622185585378  0.5644220562694713
  0.9768686007001790  0.3796725715785669  0.0647475929810213
  0.9768230042693773  0.3798662664090031  0.5637955256837941
  0.9767044331094041  0.8796430063574405  0.0644598108115844
  0.9766257174870034  0.8801496945594991  0.5645852576310944
  0.2268487724066759  0.1294097985477123  0.0642160060057932
  0.2263512046821816  0.1289552954962687  0.5644274438406498
  0.2267020436237104  0.6294073796376978  0.0647414638567625
  0.2266851219282273  0.6299255717687799  0.5644321299827837
  0.7263014300033390  0.1299074791478319  0.0641836470920722
  0.7250958659740689  0.1310676619484781  0.5634803526170060
  0.7264462255827837  0.6294164340036019  0.0648045122034873
  0.7264556329067702  0.6311190325651168  0.5648147282501483
  0.4762920883817898  0.1301268348438001  0.3143073922567581
  0.4763631834527260  0.1288284211606339  0.8142209189410821
  0.4766739194282366  0.6296462587204701  0.3149214355651750
  0.4766055493070880  0.6288083896315158  0.8147962720843154
  0.9768295037725139  0.1303632690568435  0.3142347764965052
  0.9765989855496571  0.1296110608909089  0.8143304509706510
  0.9769154789613168  0.6298469808839613  0.3147259838003080
  0.9766001924251526  0.6293516603154572  0.8145930197090649
  0.3141293116447343  0.1293751272681192  0.2265398425475382
  0.3134240380747713  0.1302756138184549  0.7267483173192772
  0.3147057937631814  0.6293587393182278  0.2266941587330749
  0.3151530542024403  0.6304497471303634  0.7263295796805735
  0.8142324525765048  0.1286541558009091  0.2266125628047249
  0.8140947853112124  0.1293404274482128  0.7262990637486908
  0.8148695589747135  0.6290123054339247  0.2265879819724077
  0.8146285714566517  0.6293104144788373  0.7265471191201840
  0.0644426648440088  0.1294686630139168  0.4765747744160080
  0.0642943370957170  0.1296554089298070  0.9766726242812140
  0.0649022327880573  0.6293324503348856  0.4764735483520610
  0.0646590468977024  0.6294717687961153  0.9766479193459858
  0.5612509906419376  0.1290413249604896  0.4742209384084788
  0.5641049619943743  0.1303501610908384  0.9766487612528181
  0.5648164986585513  0.6296140086603970  0.4763588612242629
  0.5648740969445143  0.6296472036857708  0.9768639039387210
  0.3155187946026103  0.3781895952341614  0.4762893475141681
  0.3150375999633113  0.3798415466148555  0.9767645284841961
  0.3144304102341593  0.8798996479351473  0.4764426985574346
  0.3146105110555339  0.8799743926641810  0.9767062801137172
  0.8136885371739808  0.3787462688952274  0.4760061939747118
  0.8143961942181548  0.3791278132068783  0.9769792448457153
  0.8146664715103142  0.8789360745473118  0.4766050711982857
  0.8145226429512604  0.8794352802115668  0.9765419319960031
  0.0646421994384738  0.3792748197596225  0.2269124137016263
  0.0641315156387563  0.3799303806980205  0.7264682101896938
  0.0645990406417454  0.8795205954365102  0.2266676283638986
  0.0646545915612293  0.8796325148872555  0.7266432387775339
  0.5626257613283059  0.3783152388551230  0.2279726883020103
  0.5649761043372337  0.3829451091523737  0.7269554764391017
  0.5646513880526101  0.8797470316684652  0.2266493466822084
  0.5646253631524516  0.8803252283822758  0.7262858615456054
  0.2270588695559113  0.3144920319548561  0.1301278158775787
  0.2260069858642737  0.3148869557357656  0.6310631697275468
  0.2267090123361157  0.8145814890157439  0.1294460104625088
  0.2265570355355706  0.8141099811240196  0.6294825996178162
  0.7260529607747870  0.3147000892101701  0.1310417390029386
  0.7261810611418156  0.3142578775831808  0.6294854882533087
  0.7265776560750297  0.8146550167003781  0.1296029149751377
  0.7262219392086138  0.8145385048658795  0.6300310769997282
  0.4748243686966660  0.3123878415084533  0.3857993170546052
  0.4767657670033856  0.3148438873164423  0.8790920525500496
  0.4766571136743138  0.8146036904839633  0.3793357595006412
  0.4765423675998477  0.8148843746990337  0.8791877542616930
  0.9776452756727210  0.3138230335496957  0.3808806435371821
  0.9766645281528525  0.3147646137170170  0.8798503502168415
  0.9767868317312463  0.8144867025146709  0.3795093022558262
  0.9765904867548585  0.8145321221634347  0.8796375249844317
  0.2264820158860914  0.0641635791748243  0.3794814165717639
  0.2265594803952595  0.0646155188433681  0.8794780298703202
  0.2269025371356719  0.5640947798846625  0.3787333599642295
  0.2267593581221092  0.5645878773820883  0.8791138657054702
  0.7265517672390089  0.0642717433893054  0.3803861082382056
  0.7261502145627574  0.0650916227514671  0.8798418910598258
  0.7267714117070483  0.5646885693286805  0.3790893270205302
  0.7264319962404784  0.5645391319102444  0.8794623020916745
  0.4766356503829599  0.0644182226871450  0.1297739386151662
  0.4757845109282499  0.0640560545978914  0.6298417119752031
  0.4766509970954971  0.5646659691005667  0.1291289372377378
  0.4766188619779328  0.5644386527621279  0.6287470530045383
  0.9767264498561872  0.0645988566966480  0.1298374555526109
  0.9764113800488303  0.0646325215064749  0.6299460354241049
  0.9767081484468250  0.5644810040173880  0.1293626585863521
  0.9767853027745446  0.5644753776643938  0.6293279155893075
  0.1302189730489189  0.2267439880865396  0.3146817297390569
  0.1290685896425501  0.2266811897233652  0.8146327374183500
  0.1301211958215660  0.7267162041667419  0.3146057951580516
  0.1293419037512393  0.7265323366433591  0.8145888078519334
  0.6297929992411966  0.2267382495354440  0.3138509663312448
  0.6283723275279627  0.2268708417758347  0.8138023711974043
  0.6302075368742877  0.7269246046672109  0.3142134768983524
  0.6292486935882593  0.7268342464206725  0.8144874548070788
  0.3794344818497564  0.2265313282967938  0.0647423297107750
  0.3776295079334346  0.2228706932680566  0.5614533932928509
  0.3796465368260229  0.7267082786849457  0.0643925641198990
  0.3801914858424240  0.7267569932068554  0.5638096388309819
  0.8790947162291829  0.2266320208977888  0.0650736829275544
  0.8790947935908946  0.2265697803279281  0.5646281148250551
  0.8796392763065413  0.7266518890172051  0.0644946506908468
  0.8798752581989362  0.7268592832615468  0.5649295100126039
  0.1298836416489877  0.4764397916589616  0.0647795622751417
  0.1300310409931029  0.4764790480824885  0.5644902592924126
  0.1294986657917505  0.9767091059288262  0.0645710658835625
  0.1293266923868046  0.9766778681213069  0.5646147611003656
  0.6295835720734431  0.4758066315352707  0.0655554951868993
  0.6322695159983311  0.4781941267973266  0.5632199794021275
  0.6294961129591670  0.9767265303966894  0.0641406278203291
  0.6303154228254115  0.9763820223304265  0.5640020927368496
  0.3812481658070794  0.4763748539350061  0.3139662192336630
  0.3793196109924324  0.4763934351231853  0.8142615077074780
  0.3797211281813802  0.9765883221314695  0.3139912671459655
  0.3787171925153956  0.9766412210119313  0.8140115347283086
  0.8808791953387782  0.4761652356291108  0.3151837618901254
  0.8792799776595430  0.4763612089287292  0.8146684817548788
  0.8796571835509539  0.9768886782586605  0.3148231403750898
  0.8791496928429865  0.9767111272633926  0.8145875381310859
 
  0.00000000E+00  0.00000000E+00  0.00000000E+00
  0.00000000E+00  0.00000000E+00  0.00000000E+00
  0.00000000E+00  0.00000000E+00  0.00000000E+00
  0.00000000E+00  0.00000000E+00  0.00000000E+00
  0.00000000E+00  0.00000000E+00  0.00000000E+00
  0.00000000E+00  0.00000000E+00  0.00000000E+00
  0.00000000E+00  0.00000000E+00  0.00000000E+00
  0.00000000E+00  0.00000000E+00  0.00000000E+00
  0.00000000E+00  0.00000000E+00  0.00000000E+00
  0.00000000E+00  0.00000000E+00  0.00000000E+00
  0.00000000E+00  0.00000000E+00  0.00000000E+00
  0.00000000E+00  0.00000000E+00  0.00000000E+00
  0.00000000E+00  0.00000000E+00  0.00000000E+00
  0.00000000E+00  0.00000000E+00  0.00000000E+00
  0.00000000E+00  0.00000000E+00  0.00000000E+00
  0.00000000E+00  0.00000000E+00  0.00000000E+00
  0.00000000E+00  0.00000000E+00  0.00000000E+00
  0.00000000E+00  0.00000000E+00  0.00000000E+00
  0.00000000E+00  0.00000000E+00  0.00000000E+00
  0.00000000E+00  0.00000000E+00  0.00000000E+00
  0.00000000E+00  0.00000000E+00  0.00000000E+00
  0.00000000E+00  0.00000000E+00  0.00000000E+00
  0.00000000E+00  0.00000000E+00  0.00000000E+00
  0.00000000E+00  0.00000000E+00  0.00000000E+00
  0.00000000E+00  0.00000000E+00  0.00000000E+00
  0.00000000E+00  0.00000000E+00  0.00000000E+00
  0.00000000E+00  0.00000000E+00  0.00000000E+00
  0.00000000E+00  0.00000000E+00  0.00000000E+00
  0.00000000E+00  0.00000000E+00  0.00000000E+00
  0.00000000E+00  0.00000000E+00  0.00000000E+00
  0.00000000E+00  0.00000000E+00  0.00000000E+00
  0.00000000E+00  0.00000000E+00  0.00000000E+00
  0.00000000E+00  0.00000000E+00  0.00000000E+00
  0.00000000E+00  0.00000000E+00  0.00000000E+00
  0.00000000E+00  0.00000000E+00  0.00000000E+00
  0.00000000E+00  0.00000000E+00  0.00000000E+00
  0.00000000E+00  0.00000000E+00  0.00000000E+00
  0.00000000E+00  0.00000000E+00  0.00000000E+00
  0.00000000E+00  0.00000000E+00  0.00000000E+00
  0.00000000E+00  0.00000000E+00  0.00000000E+00
  0.00000000E+00  0.00000000E+00  0.00000000E+00
  0.00000000E+00  0.00000000E+00  0.00000000E+00
  0.00000000E+00  0.00000000E+00  0.00000000E+00
  0.00000000E+00  0.00000000E+00  0.00000000E+00
  0.00000000E+00  0.00000000E+00  0.00000000E+00
  0.00000000E+00  0.00000000E+00  0.00000000E+00
  0.00000000E+00  0.00000000E+00  0.00000000E+00
  0.00000000E+00  0.00000000E+00  0.00000000E+00
  0.00000000E+00  0.00000000E+00  0.00000000E+00
  0.00000000E+00  0.00000000E+00  0.00000000E+00
  0.00000000E+00  0.00000000E+00  0.00000000E+00
  0.00000000E+00  0.00000000E+00  0.00000000E+00
  0.00000000E+00  0.00000000E+00  0.00000000E+00
  0.00000000E+00  0.00000000E+00  0.00000000E+00
  0.00000000E+00  0.00000000E+00  0.00000000E+00
  0.00000000E+00  0.00000000E+00  0.00000000E+00
  0.00000000E+00  0.00000000E+00  0.00000000E+00
  0.00000000E+00  0.00000000E+00  0.00000000E+00
  0.00000000E+00  0.00000000E+00  0.00000000E+00
  0.00000000E+00  0.00000000E+00  0.00000000E+00
  0.00000000E+00  0.00000000E+00  0.00000000E+00
  0.00000000E+00  0.00000000E+00  0.00000000E+00
  0.00000000E+00  0.00000000E+00  0.00000000E+00
  0.00000000E+00  0.00000000E+00  0.00000000E+00
  0.00000000E+00  0.00000000E+00  0.00000000E+00
  0.00000000E+00  0.00000000E+00  0.00000000E+00
  0.00000000E+00  0.00000000E+00  0.00000000E+00
  0.00000000E+00  0.00000000E+00  0.00000000E+00
  0.00000000E+00  0.00000000E+00  0.00000000E+00
  0.00000000E+00  0.00000000E+00  0.00000000E+00
  0.00000000E+00  0.00000000E+00  0.00000000E+00
  0.00000000E+00  0.00000000E+00  0.00000000E+00
  0.00000000E+00  0.00000000E+00  0.00000000E+00
  0.00000000E+00  0.00000000E+00  0.00000000E+00
  0.00000000E+00  0.00000000E+00  0.00000000E+00
  0.00000000E+00  0.00000000E+00  0.00000000E+00
  0.00000000E+00  0.00000000E+00  0.00000000E+00
  0.00000000E+00  0.00000000E+00  0.00000000E+00
  0.00000000E+00  0.00000000E+00  0.00000000E+00
  0.00000000E+00  0.00000000E+00  0.00000000E+00
  0.00000000E+00  0.00000000E+00  0.00000000E+00
  0.00000000E+00  0.00000000E+00  0.00000000E+00
  0.00000000E+00  0.00000000E+00  0.00000000E+00
  0.00000000E+00  0.00000000E+00  0.00000000E+00
  0.00000000E+00  0.00000000E+00  0.00000000E+00
  0.00000000E+00  0.00000000E+00  0.00000000E+00
  0.00000000E+00  0.00000000E+00  0.00000000E+00
  0.00000000E+00  0.00000000E+00  0.00000000E+00
  0.00000000E+00  0.00000000E+00  0.00000000E+00
  0.00000000E+00  0.00000000E+00  0.00000000E+00
  0.00000000E+00  0.00000000E+00  0.00000000E+00
  0.00000000E+00  0.00000000E+00  0.00000000E+00
  0.00000000E+00  0.00000000E+00  0.00000000E+00
  0.00000000E+00  0.00000000E+00  0.00000000E+00
  0.00000000E+00  0.00000000E+00  0.00000000E+00
  0.00000000E+00  0.00000000E+00  0.00000000E+00
  0.00000000E+00  0.00000000E+00  0.00000000E+00
  0.00000000E+00  0.00000000E+00  0.00000000E+00
  0.00000000E+00  0.00000000E+00  0.00000000E+00
  0.00000000E+00  0.00000000E+00  0.00000000E+00
  0.00000000E+00  0.00000000E+00  0.00000000E+00
  0.00000000E+00  0.00000000E+00  0.00000000E+00
  0.00000000E+00  0.00000000E+00  0.00000000E+00
  0.00000000E+00  0.00000000E+00  0.00000000E+00
  0.00000000E+00  0.00000000E+00  0.00000000E+00
  0.00000000E+00  0.00000000E+00  0.00000000E+00
  0.00000000E+00  0.00000000E+00  0.00000000E+00
  0.00000000E+00  0.00000000E+00  0.00000000E+00
  0.00000000E+00  0.00000000E+00  0.00000000E+00
  0.00000000E+00  0.00000000E+00  0.00000000E+00
  0.00000000E+00  0.00000000E+00  0.00000000E+00
  0.00000000E+00  0.00000000E+00  0.00000000E+00
  0.00000000E+00  0.00000000E+00  0.00000000E+00
  0.00000000E+00  0.00000000E+00  0.00000000E+00
  0.00000000E+00  0.00000000E+00  0.00000000E+00
  0.00000000E+00  0.00000000E+00  0.00000000E+00
  0.00000000E+00  0.00000000E+00  0.00000000E+00
  0.00000000E+00  0.00000000E+00  0.00000000E+00
  0.00000000E+00  0.00000000E+00  0.00000000E+00
  0.00000000E+00  0.00000000E+00  0.00000000E+00
  0.00000000E+00  0.00000000E+00  0.00000000E+00
  0.00000000E+00  0.00000000E+00  0.00000000E+00
  0.00000000E+00  0.00000000E+00  0.00000000E+00
  0.00000000E+00  0.00000000E+00  0.00000000E+00
  0.00000000E+00  0.00000000E+00  0.00000000E+00
  0.00000000E+00  0.00000000E+00  0.00000000E+00
  0.00000000E+00  0.00000000E+00  0.00000000E+00
  0.00000000E+00  0.00000000E+00  0.00000000E+00
  0.00000000E+00  0.00000000E+00  0.00000000E+00
  0.00000000E+00  0.00000000E+00  0.00000000E+00
  0.00000000E+00  0.00000000E+00  0.00000000E+00
  0.00000000E+00  0.00000000E+00  0.00000000E+00
  0.00000000E+00  0.00000000E+00  0.00000000E+00
  0.00000000E+00  0.00000000E+00  0.00000000E+00
  0.00000000E+00  0.00000000E+00  0.00000000E+00
  0.00000000E+00  0.00000000E+00  0.00000000E+00
  0.00000000E+00  0.00000000E+00  0.00000000E+00
  0.00000000E+00  0.00000000E+00  0.00000000E+00
  0.00000000E+00  0.00000000E+00  0.00000000E+00
  0.00000000E+00  0.00000000E+00  0.00000000E+00
  0.00000000E+00  0.00000000E+00  0.00000000E+00
  0.00000000E+00  0.00000000E+00  0.00000000E+00
  0.00000000E+00  0.00000000E+00  0.00000000E+00
  0.00000000E+00  0.00000000E+00  0.00000000E+00
  0.00000000E+00  0.00000000E+00  0.00000000E+00
  0.00000000E+00  0.00000000E+00  0.00000000E+00
  0.00000000E+00  0.00000000E+00  0.00000000E+00
  0.00000000E+00  0.00000000E+00  0.00000000E+00
  0.00000000E+00  0.00000000E+00  0.00000000E+00
  0.00000000E+00  0.00000000E+00  0.00000000E+00
  0.00000000E+00  0.00000000E+00  0.00000000E+00
  0.00000000E+00  0.00000000E+00  0.00000000E+00
  0.00000000E+00  0.00000000E+00  0.00000000E+00
  0.00000000E+00  0.00000000E+00  0.00000000E+00
  0.00000000E+00  0.00000000E+00  0.00000000E+00
  0.00000000E+00  0.00000000E+00  0.00000000E+00
  0.00000000E+00  0.00000000E+00  0.00000000E+00
  0.00000000E+00  0.00000000E+00  0.00000000E+00
  0.00000000E+00  0.00000000E+00  0.00000000E+00
  0.00000000E+00  0.00000000E+00  0.00000000E+00
  0.00000000E+00  0.00000000E+00  0.00000000E+00
  0.00000000E+00  0.00000000E+00  0.00000000E+00
  0.00000000E+00  0.00000000E+00  0.00000000E+00
  0.00000000E+00  0.00000000E+00  0.00000000E+00
  0.00000000E+00  0.00000000E+00  0.00000000E+00
  0.00000000E+00  0.00000000E+00  0.00000000E+00
  0.00000000E+00  0.00000000E+00  0.00000000E+00
  0.00000000E+00  0.00000000E+00  0.00000000E+00
  0.00000000E+00  0.00000000E+00  0.00000000E+00
  0.00000000E+00  0.00000000E+00  0.00000000E+00
  0.00000000E+00  0.00000000E+00  0.00000000E+00
  0.00000000E+00  0.00000000E+00  0.00000000E+00
  0.00000000E+00  0.00000000E+00  0.00000000E+00
  0.00000000E+00  0.00000000E+00  0.00000000E+00
  0.00000000E+00  0.00000000E+00  0.00000000E+00
  0.00000000E+00  0.00000000E+00  0.00000000E+00
  0.00000000E+00  0.00000000E+00  0.00000000E+00
  0.00000000E+00  0.00000000E+00  0.00000000E+00
  0.00000000E+00  0.00000000E+00  0.00000000E+00
  0.00000000E+00  0.00000000E+00  0.00000000E+00
  0.00000000E+00  0.00000000E+00  0.00000000E+00
  0.00000000E+00  0.00000000E+00  0.00000000E+00
  0.00000000E+00  0.00000000E+00  0.00000000E+00
  0.00000000E+00  0.00000000E+00  0.00000000E+00
  0.00000000E+00  0.00000000E+00  0.00000000E+00
  0.00000000E+00  0.00000000E+00  0.00000000E+00
  0.00000000E+00  0.00000000E+00  0.00000000E+00
  0.00000000E+00  0.00000000E+00  0.00000000E+00
  0.00000000E+00  0.00000000E+00  0.00000000E+00
  0.00000000E+00  0.00000000E+00  0.00000000E+00
  0.00000000E+00  0.00000000E+00  0.00000000E+00
  0.00000000E+00  0.00000000E+00  0.00000000E+00
  0.00000000E+00  0.00000000E+00  0.00000000E+00
  0.00000000E+00  0.00000000E+00  0.00000000E+00
  0.00000000E+00  0.00000000E+00  0.00000000E+00
  0.00000000E+00  0.00000000E+00  0.00000000E+00
  0.00000000E+00  0.00000000E+00  0.00000000E+00
  0.00000000E+00  0.00000000E+00  0.00000000E+00
  0.00000000E+00  0.00000000E+00  0.00000000E+00
  0.00000000E+00  0.00000000E+00  0.00000000E+00
  0.00000000E+00  0.00000000E+00  0.00000000E+00
  0.00000000E+00  0.00000000E+00  0.00000000E+00
  0.00000000E+00  0.00000000E+00  0.00000000E+00
  0.00000000E+00  0.00000000E+00  0.00000000E+00
  0.00000000E+00  0.00000000E+00  0.00000000E+00
  0.00000000E+00  0.00000000E+00  0.00000000E+00
  0.00000000E+00  0.00000000E+00  0.00000000E+00