Li95 Nb33 O128                          
   1.00000000000000     
    13.7806110000000004   -0.0000030000000000   -4.8721819999999996
    -6.8903090000000002   11.9343559999999993   -4.8721850000000000
     0.0000000000000000   -0.0000040000000000   14.6165459999999996
   Li   Nb   O 
    95    33   128
Direct
  0.9979005037130619  0.1370893981720940  0.2572933884965849
  0.0003727644465812  0.1372561348357735  0.7582758806922385
  0.9999278351435805  0.6364627183434663  0.2574699006176644
  0.0013809273412306  0.6374177929541816  0.7584675436189698
  0.5000913563025122  0.1365476338582496  0.7584309773647817
  0.4999522224847510  0.6377474867431800  0.2565300163931923
  0.4999309170743871  0.6360647279481739  0.7573401007351066
  0.3631509882432766  0.3644622462683742  0.1201662878400569
  0.3641099141488411  0.3626172185105432  0.6199845980552041
  0.3610463679924436  0.8580453675568052  0.1166666512211947
  0.3634735024159710  0.8630286154698368  0.6211117420453220
  0.8586643450659466  0.3598541361265646  0.1222005857768949
  0.8669166291195083  0.3658258939689389  0.6225972871104091
  0.8629246326624624  0.8633153643273630  0.1204463625506236
  0.8644339369094496  0.8641236322659367  0.6212570942078344
  0.1341906223723228  0.9990781892226153  0.2562062459922245
  0.1369319191573837  0.0002903616038097  0.7584597731578171
  0.1354668085880135  0.4999941096041312  0.2567591327091776
  0.1369460658482495  0.5001756125053518  0.7573411690173586
  0.6411969601274450  0.9964573485815933  0.2587943465335414
  0.6372537792954347  0.9996983440288929  0.7578811843415494
  0.6380311250492952  0.5011160769783345  0.2575039216285262
  0.6365130686938301  0.4988631296237287  0.7565999565071735
  0.9975699689738065  0.2573166237414668  0.1371039823948692
  0.0007966799879568  0.2580861593731925  0.6369898589172891
  0.9995084883346905  0.7570653132572929  0.1361967854097301
  0.0016128045057116  0.7589913579540877  0.6381393900954606
  0.5020869177922478  0.2656735611018419  0.1379852583178760
  0.5000997915662353  0.2564707305037004  0.6352100005635890
  0.4996839152873775  0.7561288719273662  0.1351135885862291
  0.4999350017572155  0.7561318757456164  0.6357086449519258
  0.1362867085875052  0.2580893054698379  0.9999951850161608
  0.1370214655924400  0.2569655874923313  0.5001863639720838
  0.1353169077633964  0.7570654875378722  0.9996855214804654
  0.1368494023710198  0.7569738053765391  0.5003802967369779
  0.6394387092949785  0.2574709451625168  0.0069606450192978
  0.6440368661270526  0.2625433996605366  0.5056063274484899
  0.6370725519533025  0.7564992380403055  0.9998554638611168
  0.6381217631266480  0.7588774841376775  0.5003879745679569
  0.3580523423817894  0.1184918231696983  0.3617965524315707
  0.3623451160792257  0.1199387772346086  0.8639432310368349
  0.3619046286513168  0.6208791065590660  0.3622104805475459
  0.3632347895627461  0.6203026267497052  0.8634882336610659
  0.8643436586201219  0.1219418145672506  0.3642867848452838
  0.8627907161938850  0.1204624237534020  0.8642072929785343
  0.8634691507850221  0.6212548195197627  0.3632492317080320
  0.8635596942275185  0.6200199505669843  0.8637632422874475
  0.1193072971882359  0.3627479067610651  0.3623756321713287
  0.1208528632882206  0.3635647879378752  0.8638257077888269
  0.1204784182955976  0.8632045901779364  0.3628538407204829
  0.1214532916210374  0.8645634484501059  0.8644497781196065
  0.6259451201279873  0.3754415685592321  0.3675685291012556
  0.6207612429403611  0.3625213748642437  0.8630570591223119
  0.6218650522786646  0.8636761885614987  0.3640737101596443
  0.6203857776567716  0.8627645511943527  0.8629453477266651
  0.2582662571451309  0.1367829372703540  0.0006444254594840
  0.2566135656163766  0.1356746459467502  0.4995223047760220
  0.2569256936670996  0.6351788179087094  0.9989011523794034
  0.2567947367152073  0.6357633267022464  0.4996532877787914
  0.7551160324920119  0.1392470113737119  0.0073467759770480
  0.7589613644129969  0.1387041343175284  0.4998485062543523
  0.7569141578228766  0.6357302093296227  0.9995705522837568
  0.7588502927992593  0.6381908105761909  0.4999163960005006
  0.2488498611708181  0.9978799606058075  0.1318377298033866
  0.2581225074956990  0.9999840705734826  0.6374861511445786
  0.2560612153004698  0.5001737747922661  0.1352940152526898
  0.2585042092248671  0.5001886952932821  0.6370216811464715
  0.7574068812884320  0.0005570206237024  0.1373235243128974
  0.7579428661968137  0.0004133669046524  0.6370153703558898
  0.7574339625963376  0.4995459600562242  0.1374761479010616
  0.7598923901220402  0.5006750489395202  0.6376481672774048
  0.3749508860859763  0.2487670147890384  0.2421090908593442
  0.3792980834467983  0.2421207753511112  0.7418123806866532
  0.3785099366272675  0.7420508125299037  0.2420434959608855
  0.3791399138834848  0.7412637237931321  0.7414526879161727
  0.8712665312825933  0.2423471184141874  0.2400353290170756
  0.8798142171452525  0.2431171279842559  0.7431457702368860
  0.8789967713915843  0.7423422242555873  0.2423225384404191
  0.8801572078539905  0.7430219815846399  0.7429797729801493
  0.2413071272728544  0.2411864861005739  0.3782078113113982
  0.2424909470460221  0.2425200499794968  0.8794750202226567
  0.2420190033823175  0.7421889205975134  0.3787961281844758
  0.2431331780114974  0.7416607262678099  0.8792662524774997
  0.7539905188306548  0.2516738369988119  0.3836766671483929
  0.7416205857669169  0.2416045510889546  0.8801477504452180
  0.7437201720694091  0.7438406263043404  0.3790504376541861
  0.7417514899099444  0.7419402299827667  0.8786074706767550
  0.2411709693348953  0.3792647365826483  0.2409588524967745
  0.2433425526231048  0.3792903117675763  0.7428533415954846
  0.2419755350832773  0.8798755142356356  0.2410116200877397
  0.2429932118611688  0.8799578463205364  0.7436006638967640
  0.7408357580440139  0.3726848123568089  0.2397209732426191
  0.7440532134286286  0.3794022695626396  0.7438987855982475
  0.7439588411006923  0.8780630386608195  0.2428458346238287
  0.7429800291349196  0.8786618096030807  0.7426761121943457
  0.5047447453635030  0.1252832836084750  0.2452112119723537
  0.9996902328068202  0.9998965667785669  0.3589900942616921
  0.9999212133824216  0.0002490874710261  0.8593153343385751
  0.9998123346219359  0.5001618823666831  0.3590737785043885
  0.0007378698834231  0.5002876463053596  0.8598488671404354
  0.4993162990738966  0.9979297733061117  0.3598714782313550
  0.5009012812656408  0.9994356859792930  0.8594591594583889
  0.5000203507036147  0.5026371880967844  0.3587078267737240
  0.4999933887518324  0.4994182965023839  0.8580926233156774
  0.9987410890323360  0.3585813389436794  0.0003063644876562
  0.0025690767265303  0.3604938479224344  0.5011124305133663
  0.9978788592030909  0.8582352971025742  0.9990094555625788
  0.0008458266967750  0.8594147623397390  0.5003136941200879
  0.4997780277660482  0.3588229554470743  0.9983739161339571
  0.5005400509140046  0.3586915766327223  0.4982409067277587
  0.5006294647861367  0.8569040305420472  0.9988076942491446
  0.5001893325579942  0.8589436699863597  0.4999512348035111
  0.3588354284566222  0.9967776735269140  0.9984139419032871
  0.3587987372979597  0.9997822628463879  0.4996212100786650
  0.3590549499655324  0.4999430873385009  0.9996174307955812
  0.3584506474137825  0.4984446771163320  0.4985040355070751
  0.8574713483058858  0.9998432950890574  0.9996812442474123
  0.8599678549361940  0.0007648843564922  0.5010961369884370
  0.8586492913925312  0.4993699890327079  0.0004547650055500
  0.8613248933658824  0.5029803825087242  0.5016758860907302
  0.1388273993196947  0.1411495523377937  0.1405374539246083
  0.1414770213607426  0.1411174402230344  0.6413486314343828
  0.1407127755537800  0.6413053912103877  0.1408697713378402
  0.1421783645164894  0.6417939240119850  0.6420098332824296
  0.6333010652204933  0.1333064082585196  0.1424980673579341
  0.6413918811037291  0.1410239260472821  0.6408378842951024
  0.6406729617585398  0.6406285189765910  0.1404617883546848
  0.6415450881014948  0.6400618418366477  0.6402482516259909
  0.9994448261868243  0.3794505936185075  0.2563119938275094
  0.0005522933130209  0.3795687914503176  0.7566389538271707
  0.9995951871328330  0.8791960711632498  0.2559586053623661
  0.0001848336301862  0.8798033765340065  0.7565027988066149
  0.4995493966098579  0.3819591297291041  0.2556510198062298
  0.5000819093061324  0.3786468311274831  0.7550404577368397
  0.5008073241602986  0.8798216935203556  0.2564854990329479
  0.4995112657255234  0.8783093433056166  0.7553349619216334
  0.1205608270229988  0.1204704271290069  0.3769095882984956
  0.1204210936250547  0.1212426350549052  0.8773910526568898
  0.1209693231239299  0.6206001735357916  0.3768651771986100
  0.1209715636928408  0.6208722668629250  0.8770648275853432
  0.6270901715408286  0.1278640734397740  0.3776744636118678
  0.6203348984857584  0.1206379574556777  0.8772967722226142
  0.6211486727794266  0.6227980950013290  0.3769243536008489
  0.6206284694545516  0.6199389987907935  0.8757498438576761
  0.3741870858891758  0.0010907700363845  0.2512773098299022
  0.3795714535327050  0.9998554606408163  0.7571206976791984
  0.3786973000647720  0.5015030311509321  0.2557472457865870
  0.3794909800483452  0.4993314843422851  0.7550863618752288
  0.8790630387891838  0.9999801916001800  0.2562355184769842
  0.8792010511821005  0.9999286358665316  0.7561332167126054
  0.8799424241205926  0.5014656999032994  0.2573478097103319
  0.8798298262646611  0.5000532446498340  0.7568474865363086
  0.0003572483166536  0.2564230993071419  0.3798340893800471
  0.9995901441917781  0.2562164426036162  0.8797998491362478
  0.0003842884879646  0.7563628924665480  0.3794476502151412
  0.9994855995968592  0.7560238849548284  0.8793380249171818
  0.5018160087423240  0.2534703445756676  0.3753119989580753
  0.4993385194293722  0.2551848681655358  0.8783863764600284
  0.5001096496213364  0.7566300981284542  0.3788073676783270
  0.4996267117657780  0.7536402380596883  0.8778190526364895
  0.3795289397348114  0.2569283740834791  0.9999913545582970
  0.3797830043388259  0.2547135196380452  0.4974387176038135
  0.3783331037189157  0.7517566548881760  0.9966237580125181
  0.3793541086437529  0.7557318445356955  0.4992981959039255
  0.8784888113933249  0.2558758660133762  0.0007033913094148
  0.8819949212130638  0.2581997816907915  0.5021877219811017
  0.8777913416561418  0.7551136356876853  0.9992373413313231
  0.8799758456664364  0.7572605336599665  0.5005370582175175
  0.1201216339186502  0.3771493453342956  0.1208583156172693
  0.1226789705198499  0.3774554837306496  0.6215660022794438
  0.1186468467526467  0.8764097490686140  0.1202795683474065
  0.1212948671093841  0.8771516326108539  0.6212100725449687
  0.6200766290913222  0.3779525139643454  0.1203047034471751
  0.6208751481230337  0.3756008595117564  0.6183527779782239
  0.6209597708056691  0.8741868974807900  0.1195366022176145
  0.6206992548137009  0.8762789249147502  0.6201229419185239
  0.3753243436903873  0.1274677222857079  0.1230875998358485
  0.3768363094362783  0.1204317491026075  0.6202830626463722
  0.3766551228240544  0.6208089449198866  0.1200741790660942
  0.3771723121296020  0.6191704876260005  0.6197751194386711
  0.8748276719445869  0.1199542347549780  0.1204172752796353
  0.8775530559476650  0.1213920932345260  0.6214706977259183
  0.8766905077761677  0.6205628626970352  0.1207444101515520
  0.8794396602600045  0.6230849954143025  0.6231655113762073
  0.2560213155974296  0.3794410672492319  0.9998290350724801
  0.2564741167649203  0.3779854938991107  0.4991686307212859
  0.2541410100330239  0.8788581633716319  0.0001130413662338
  0.2565476955263080  0.8792194818498658  0.5000585317415585
  0.7558653652653078  0.3790215332033355  0.0005874356760742
  0.7593770338810728  0.3829810982080275  0.5033025173850731
  0.7552749605432041  0.8783407856122309  0.9992049964018435
  0.7567209046913277  0.8798817570605308  0.5006353880150343
  0.2554861944175997  0.9996067903181967  0.3788934486024473
  0.2548214015669430  0.0006737755283908  0.8807488326280151
  0.2558572568409829  0.4991917602529057  0.3786032979812006
  0.2558180194707660  0.4991618017285404  0.8785830335612275
  0.7567773906065085  0.9999470544364897  0.3798920885713599
  0.7548688542198363  0.9982542136347519  0.8778596119453397
  0.7588129040529097  0.5052860858470680  0.3829816905325387
  0.7559881677356941  0.4991625830145807  0.8791270244173219
  0.1211246000441903  0.2437048774881987  0.2435671339072272
  0.1235817875632037  0.2439215773780319  0.7441150566874200
  0.1229480020023104  0.7440998478838239  0.2438037980022472
  0.1247420069899761  0.7449561462155074  0.7449506484541928
  0.6277406952744045  0.2605213678519434  0.2519106613389539
  0.6229741704428591  0.2434224876678286  0.7433637617313806
  0.6233836865420628  0.7440739163335266  0.2434857976002149
  0.6226326547580783  0.7420074145079383  0.7426257410147556
  0.2421985002697085  0.2449595606973318  0.1235266531698258
  0.2444121563223973  0.2434041047497004  0.6229465735927775
  0.2438904400549049  0.7438038164867606  0.1228229544605668
  0.2448880275445688  0.7439306135963832  0.6232385726957119
  0.7424922667009710  0.2457412248907644  0.1279636342248978
  0.7448560980004970  0.2443844854554129  0.6237521585339323
  0.7438943248031791  0.7433688093663307  0.1227200399318775
  0.7441099206719741  0.7435265127512665  0.6229233156762675
  0.2419301661944857  0.1237513750182799  0.2438183895995536
  0.2439754569817509  0.1229299735181399  0.7440793470182072
  0.2436800242033499  0.6234916156267829  0.2438072912976423
  0.2449462975242369  0.6231673494648007  0.7438650933607107
  0.7431168619566080  0.1218486557174501  0.2460789167741027
  0.7434418818035624  0.1226874854231994  0.7437549980926619
  0.7439580168574622  0.6234597906993145  0.2437051490989290
  0.7437437247946050  0.6218681711095471  0.7430307853962645
  0.9984358813399439  0.9995773979003246  0.1136001611763007
  0.0004186051318911  0.0003113330509663  0.6144324358221098
  0.0002842104009844  0.5005924840724489  0.1142539094898325
  0.0023056874621687  0.5016494770830917  0.6158848102598853
  0.4940536744576036  0.9867189575558015  0.1174379035373150
  0.4998996931084463  0.9995127304925404  0.6128840346854361
  0.4997651775700405  0.5004432273489243  0.1135307378673929
  0.5001170786909768  0.4966300453621386  0.6115011428782324
  0.9984420698625698  0.1136187977459002  0.9995571062851596
  0.0004281632469585  0.1144037336020531  0.5003727533403293
  0.9999637823526086  0.6143169490167466  0.0000725679821443
  0.0017822668584486  0.6154390266838234  0.5011862032770296
  0.4984055679660813  0.1104002030832376  0.0010828073830851
  0.5000752376255591  0.1140073509204527  0.4991435724883146
  0.4999803174430326  0.6136139400509890  0.9990973047877461
  0.4999002625342968  0.6134174468150704  0.4999126060126571
  0.1137225396552140  0.0001482213695283  0.0007544974050262
  0.1143140451906390  0.0000615909016162  0.5000507618910888
  0.1142394552702868  0.5000767843720837  0.0002186603523597
  0.1152357839826195  0.5004434013532730  0.5003118178810411
  0.6126351869439333  0.9968854220324701  0.9975459292442181
  0.6152249930691625  0.0006018300162722  0.4999135160601114
  0.6139998900556307  0.4997571920572170  0.9991471206261622
  0.6142598876736827  0.4992821912720302  0.4979074526979375
  0.3861304686838807  0.3846450253453995  0.3838498645886830
  0.3856412261303745  0.3856842054181229  0.8849527491938076
  0.3848612557754407  0.8853841987448163  0.3842343988974903
  0.3845153517172264  0.8844379883883562  0.8855335772402384
  0.8868856562241589  0.3869281290373010  0.3880310647901482
  0.8857159811344744  0.3857587146116117  0.8860971340684500
  0.8859335301546380  0.8859741353170918  0.3859944881630497
  0.8851790240247936  0.8853911678647819  0.8853165619752374
 
  0.00000000E+00  0.00000000E+00  0.00000000E+00
  0.00000000E+00  0.00000000E+00  0.00000000E+00
  0.00000000E+00  0.00000000E+00  0.00000000E+00
  0.00000000E+00  0.00000000E+00  0.00000000E+00
  0.00000000E+00  0.00000000E+00  0.00000000E+00
  0.00000000E+00  0.00000000E+00  0.00000000E+00
  0.00000000E+00  0.00000000E+00  0.00000000E+00
  0.00000000E+00  0.00000000E+00  0.00000000E+00
  0.00000000E+00  0.00000000E+00  0.00000000E+00
  0.00000000E+00  0.00000000E+00  0.00000000E+00
  0.00000000E+00  0.00000000E+00  0.00000000E+00
  0.00000000E+00  0.00000000E+00  0.00000000E+00
  0.00000000E+00  0.00000000E+00  0.00000000E+00
  0.00000000E+00  0.00000000E+00  0.00000000E+00
  0.00000000E+00  0.00000000E+00  0.00000000E+00
  0.00000000E+00  0.00000000E+00  0.00000000E+00
  0.00000000E+00  0.00000000E+00  0.00000000E+00
  0.00000000E+00  0.00000000E+00  0.00000000E+00
  0.00000000E+00  0.00000000E+00  0.00000000E+00
  0.00000000E+00  0.00000000E+00  0.00000000E+00
  0.00000000E+00  0.00000000E+00  0.00000000E+00
  0.00000000E+00  0.00000000E+00  0.00000000E+00
  0.00000000E+00  0.00000000E+00  0.00000000E+00
  0.00000000E+00  0.00000000E+00  0.00000000E+00
  0.00000000E+00  0.00000000E+00  0.00000000E+00
  0.00000000E+00  0.00000000E+00  0.00000000E+00
  0.00000000E+00  0.00000000E+00  0.00000000E+00
  0.00000000E+00  0.00000000E+00  0.00000000E+00
  0.00000000E+00  0.00000000E+00  0.00000000E+00
  0.00000000E+00  0.00000000E+00  0.00000000E+00
  0.00000000E+00  0.00000000E+00  0.00000000E+00
  0.00000000E+00  0.00000000E+00  0.00000000E+00
  0.00000000E+00  0.00000000E+00  0.00000000E+00
  0.00000000E+00  0.00000000E+00  0.00000000E+00
  0.00000000E+00  0.00000000E+00  0.00000000E+00
  0.00000000E+00  0.00000000E+00  0.00000000E+00
  0.00000000E+00  0.00000000E+00  0.00000000E+00
  0.00000000E+00  0.00000000E+00  0.00000000E+00
  0.00000000E+00  0.00000000E+00  0.00000000E+00
  0.00000000E+00  0.00000000E+00  0.00000000E+00
  0.00000000E+00  0.00000000E+00  0.00000000E+00
  0.00000000E+00  0.00000000E+00  0.00000000E+00
  0.00000000E+00  0.00000000E+00  0.00000000E+00
  0.00000000E+00  0.00000000E+00  0.00000000E+00
  0.00000000E+00  0.00000000E+00  0.00000000E+00
  0.00000000E+00  0.00000000E+00  0.00000000E+00
  0.00000000E+00  0.00000000E+00  0.00000000E+00
  0.00000000E+00  0.00000000E+00  0.00000000E+00
  0.00000000E+00  0.00000000E+00  0.00000000E+00
  0.00000000E+00  0.00000000E+00  0.00000000E+00
  0.00000000E+00  0.00000000E+00  0.00000000E+00
  0.00000000E+00  0.00000000E+00  0.00000000E+00
  0.00000000E+00  0.00000000E+00  0.00000000E+00
  0.00000000E+00  0.00000000E+00  0.00000000E+00
  0.00000000E+00  0.00000000E+00  0.00000000E+00
  0.00000000E+00  0.00000000E+00  0.00000000E+00
  0.00000000E+00  0.00000000E+00  0.00000000E+00
  0.00000000E+00  0.00000000E+00  0.00000000E+00
  0.00000000E+00  0.00000000E+00  0.00000000E+00
  0.00000000E+00  0.00000000E+00  0.00000000E+00
  0.00000000E+00  0.00000000E+00  0.00000000E+00
  0.00000000E+00  0.00000000E+00  0.00000000E+00
  0.00000000E+00  0.00000000E+00  0.00000000E+00
  0.00000000E+00  0.00000000E+00  0.00000000E+00
  0.00000000E+00  0.00000000E+00  0.00000000E+00
  0.00000000E+00  0.00000000E+00  0.00000000E+00
  0.00000000E+00  0.00000000E+00  0.00000000E+00
  0.00000000E+00  0.00000000E+00  0.00000000E+00
  0.00000000E+00  0.00000000E+00  0.00000000E+00
  0.00000000E+00  0.00000000E+00  0.00000000E+00
  0.00000000E+00  0.00000000E+00  0.00000000E+00
  0.00000000E+00  0.00000000E+00  0.00000000E+00
  0.00000000E+00  0.00000000E+00  0.00000000E+00
  0.00000000E+00  0.00000000E+00  0.00000000E+00
  0.00000000E+00  0.00000000E+00  0.00000000E+00
  0.00000000E+00  0.00000000E+00  0.00000000E+00
  0.00000000E+00  0.00000000E+00  0.00000000E+00
  0.00000000E+00  0.00000000E+00  0.00000000E+00
  0.00000000E+00  0.00000000E+00  0.00000000E+00
  0.00000000E+00  0.00000000E+00  0.00000000E+00
  0.00000000E+00  0.00000000E+00  0.00000000E+00
  0.00000000E+00  0.00000000E+00  0.00000000E+00
  0.00000000E+00  0.00000000E+00  0.00000000E+00
  0.00000000E+00  0.00000000E+00  0.00000000E+00
  0.00000000E+00  0.00000000E+00  0.00000000E+00
  0.00000000E+00  0.00000000E+00  0.00000000E+00
  0.00000000E+00  0.00000000E+00  0.00000000E+00
  0.00000000E+00  0.00000000E+00  0.00000000E+00
  0.00000000E+00  0.00000000E+00  0.00000000E+00
  0.00000000E+00  0.00000000E+00  0.00000000E+00
  0.00000000E+00  0.00000000E+00  0.00000000E+00
  0.00000000E+00  0.00000000E+00  0.00000000E+00
  0.00000000E+00  0.00000000E+00  0.00000000E+00
  0.00000000E+00  0.00000000E+00  0.00000000E+00
  0.00000000E+00  0.00000000E+00  0.00000000E+00
  0.00000000E+00  0.00000000E+00  0.00000000E+00
  0.00000000E+00  0.00000000E+00  0.00000000E+00
  0.00000000E+00  0.00000000E+00  0.00000000E+00
  0.00000000E+00  0.00000000E+00  0.00000000E+00
  0.00000000E+00  0.00000000E+00  0.00000000E+00
  0.00000000E+00  0.00000000E+00  0.00000000E+00
  0.00000000E+00  0.00000000E+00  0.00000000E+00
  0.00000000E+00  0.00000000E+00  0.00000000E+00
  0.00000000E+00  0.00000000E+00  0.00000000E+00
  0.00000000E+00  0.00000000E+00  0.00000000E+00
  0.00000000E+00  0.00000000E+00  0.00000000E+00
  0.00000000E+00  0.00000000E+00  0.00000000E+00
  0.00000000E+00  0.00000000E+00  0.00000000E+00
  0.00000000E+00  0.00000000E+00  0.00000000E+00
  0.00000000E+00  0.00000000E+00  0.00000000E+00
  0.00000000E+00  0.00000000E+00  0.00000000E+00
  0.00000000E+00  0.00000000E+00  0.00000000E+00
  0.00000000E+00  0.00000000E+00  0.00000000E+00
  0.00000000E+00  0.00000000E+00  0.00000000E+00
  0.00000000E+00  0.00000000E+00  0.00000000E+00
  0.00000000E+00  0.00000000E+00  0.00000000E+00
  0.00000000E+00  0.00000000E+00  0.00000000E+00
  0.00000000E+00  0.00000000E+00  0.00000000E+00
  0.00000000E+00  0.00000000E+00  0.00000000E+00
  0.00000000E+00  0.00000000E+00  0.00000000E+00
  0.00000000E+00  0.00000000E+00  0.00000000E+00
  0.00000000E+00  0.00000000E+00  0.00000000E+00
  0.00000000E+00  0.00000000E+00  0.00000000E+00
  0.00000000E+00  0.00000000E+00  0.00000000E+00
  0.00000000E+00  0.00000000E+00  0.00000000E+00
  0.00000000E+00  0.00000000E+00  0.00000000E+00
  0.00000000E+00  0.00000000E+00  0.00000000E+00
  0.00000000E+00  0.00000000E+00  0.00000000E+00
  0.00000000E+00  0.00000000E+00  0.00000000E+00
  0.00000000E+00  0.00000000E+00  0.00000000E+00
  0.00000000E+00  0.00000000E+00  0.00000000E+00
  0.00000000E+00  0.00000000E+00  0.00000000E+00
  0.00000000E+00  0.00000000E+00  0.00000000E+00
  0.00000000E+00  0.00000000E+00  0.00000000E+00
  0.00000000E+00  0.00000000E+00  0.00000000E+00
  0.00000000E+00  0.00000000E+00  0.00000000E+00
  0.00000000E+00  0.00000000E+00  0.00000000E+00
  0.00000000E+00  0.00000000E+00  0.00000000E+00
  0.00000000E+00  0.00000000E+00  0.00000000E+00
  0.00000000E+00  0.00000000E+00  0.00000000E+00
  0.00000000E+00  0.00000000E+00  0.00000000E+00
  0.00000000E+00  0.00000000E+00  0.00000000E+00
  0.00000000E+00  0.00000000E+00  0.00000000E+00
  0.00000000E+00  0.00000000E+00  0.00000000E+00
  0.00000000E+00  0.00000000E+00  0.00000000E+00
  0.00000000E+00  0.00000000E+00  0.00000000E+00
  0.00000000E+00  0.00000000E+00  0.00000000E+00
  0.00000000E+00  0.00000000E+00  0.00000000E+00
  0.00000000E+00  0.00000000E+00  0.00000000E+00
  0.00000000E+00  0.00000000E+00  0.00000000E+00
  0.00000000E+00  0.00000000E+00  0.00000000E+00
  0.00000000E+00  0.00000000E+00  0.00000000E+00
  0.00000000E+00  0.00000000E+00  0.00000000E+00
  0.00000000E+00  0.00000000E+00  0.00000000E+00
  0.00000000E+00  0.00000000E+00  0.00000000E+00
  0.00000000E+00  0.00000000E+00  0.00000000E+00
  0.00000000E+00  0.00000000E+00  0.00000000E+00
  0.00000000E+00  0.00000000E+00  0.00000000E+00
  0.00000000E+00  0.00000000E+00  0.00000000E+00
  0.00000000E+00  0.00000000E+00  0.00000000E+00
  0.00000000E+00  0.00000000E+00  0.00000000E+00
  0.00000000E+00  0.00000000E+00  0.00000000E+00
  0.00000000E+00  0.00000000E+00  0.00000000E+00
  0.00000000E+00  0.00000000E+00  0.00000000E+00
  0.00000000E+00  0.00000000E+00  0.00000000E+00
  0.00000000E+00  0.00000000E+00  0.00000000E+00
  0.00000000E+00  0.00000000E+00  0.00000000E+00
  0.00000000E+00  0.00000000E+00  0.00000000E+00
  0.00000000E+00  0.00000000E+00  0.00000000E+00
  0.00000000E+00  0.00000000E+00  0.00000000E+00
  0.00000000E+00  0.00000000E+00  0.00000000E+00
  0.00000000E+00  0.00000000E+00  0.00000000E+00
  0.00000000E+00  0.00000000E+00  0.00000000E+00
  0.00000000E+00  0.00000000E+00  0.00000000E+00
  0.00000000E+00  0.00000000E+00  0.00000000E+00
  0.00000000E+00  0.00000000E+00  0.00000000E+00
  0.00000000E+00  0.00000000E+00  0.00000000E+00
  0.00000000E+00  0.00000000E+00  0.00000000E+00
  0.00000000E+00  0.00000000E+00  0.00000000E+00
  0.00000000E+00  0.00000000E+00  0.00000000E+00
  0.00000000E+00  0.00000000E+00  0.00000000E+00
  0.00000000E+00  0.00000000E+00  0.00000000E+00
  0.00000000E+00  0.00000000E+00  0.00000000E+00
  0.00000000E+00  0.00000000E+00  0.00000000E+00
  0.00000000E+00  0.00000000E+00  0.00000000E+00
  0.00000000E+00  0.00000000E+00  0.00000000E+00
  0.00000000E+00  0.00000000E+00  0.00000000E+00
  0.00000000E+00  0.00000000E+00  0.00000000E+00
  0.00000000E+00  0.00000000E+00  0.00000000E+00
  0.00000000E+00  0.00000000E+00  0.00000000E+00
  0.00000000E+00  0.00000000E+00  0.00000000E+00
  0.00000000E+00  0.00000000E+00  0.00000000E+00
  0.00000000E+00  0.00000000E+00  0.00000000E+00
  0.00000000E+00  0.00000000E+00  0.00000000E+00
  0.00000000E+00  0.00000000E+00  0.00000000E+00
  0.00000000E+00  0.00000000E+00  0.00000000E+00
  0.00000000E+00  0.00000000E+00  0.00000000E+00
  0.00000000E+00  0.00000000E+00  0.00000000E+00
  0.00000000E+00  0.00000000E+00  0.00000000E+00
  0.00000000E+00  0.00000000E+00  0.00000000E+00
  0.00000000E+00  0.00000000E+00  0.00000000E+00
  0.00000000E+00  0.00000000E+00  0.00000000E+00
  0.00000000E+00  0.00000000E+00  0.00000000E+00
  0.00000000E+00  0.00000000E+00  0.00000000E+00
  0.00000000E+00  0.00000000E+00  0.00000000E+00
  0.00000000E+00  0.00000000E+00  0.00000000E+00
  0.00000000E+00  0.00000000E+00  0.00000000E+00
  0.00000000E+00  0.00000000E+00  0.00000000E+00
  0.00000000E+00  0.00000000E+00  0.00000000E+00
  0.00000000E+00  0.00000000E+00  0.00000000E+00
  0.00000000E+00  0.00000000E+00  0.00000000E+00
  0.00000000E+00  0.00000000E+00  0.00000000E+00
  0.00000000E+00  0.00000000E+00  0.00000000E+00
  0.00000000E+00  0.00000000E+00  0.00000000E+00
  0.00000000E+00  0.00000000E+00  0.00000000E+00
  0.00000000E+00  0.00000000E+00  0.00000000E+00
  0.00000000E+00  0.00000000E+00  0.00000000E+00
  0.00000000E+00  0.00000000E+00  0.00000000E+00
  0.00000000E+00  0.00000000E+00  0.00000000E+00
  0.00000000E+00  0.00000000E+00  0.00000000E+00
  0.00000000E+00  0.00000000E+00  0.00000000E+00
  0.00000000E+00  0.00000000E+00  0.00000000E+00
  0.00000000E+00  0.00000000E+00  0.00000000E+00
  0.00000000E+00  0.00000000E+00  0.00000000E+00
  0.00000000E+00  0.00000000E+00  0.00000000E+00
  0.00000000E+00  0.00000000E+00  0.00000000E+00
  0.00000000E+00  0.00000000E+00  0.00000000E+00
  0.00000000E+00  0.00000000E+00  0.00000000E+00
  0.00000000E+00  0.00000000E+00  0.00000000E+00
  0.00000000E+00  0.00000000E+00  0.00000000E+00
  0.00000000E+00  0.00000000E+00  0.00000000E+00
  0.00000000E+00  0.00000000E+00  0.00000000E+00
  0.00000000E+00  0.00000000E+00  0.00000000E+00
  0.00000000E+00  0.00000000E+00  0.00000000E+00
  0.00000000E+00  0.00000000E+00  0.00000000E+00
  0.00000000E+00  0.00000000E+00  0.00000000E+00
  0.00000000E+00  0.00000000E+00  0.00000000E+00
  0.00000000E+00  0.00000000E+00  0.00000000E+00
  0.00000000E+00  0.00000000E+00  0.00000000E+00
  0.00000000E+00  0.00000000E+00  0.00000000E+00
  0.00000000E+00  0.00000000E+00  0.00000000E+00
  0.00000000E+00  0.00000000E+00  0.00000000E+00
  0.00000000E+00  0.00000000E+00  0.00000000E+00
  0.00000000E+00  0.00000000E+00  0.00000000E+00
  0.00000000E+00  0.00000000E+00  0.00000000E+00
  0.00000000E+00  0.00000000E+00  0.00000000E+00
  0.00000000E+00  0.00000000E+00  0.00000000E+00
  0.00000000E+00  0.00000000E+00  0.00000000E+00
  0.00000000E+00  0.00000000E+00  0.00000000E+00
  0.00000000E+00  0.00000000E+00  0.00000000E+00
  0.00000000E+00  0.00000000E+00  0.00000000E+00
  0.00000000E+00  0.00000000E+00  0.00000000E+00
  0.00000000E+00  0.00000000E+00  0.00000000E+00
  0.00000000E+00  0.00000000E+00  0.00000000E+00
  0.00000000E+00  0.00000000E+00  0.00000000E+00
  0.00000000E+00  0.00000000E+00  0.00000000E+00
