Li95 Ta33 O128                          
   1.00000000000000     
    11.3805060000000005    0.0067560000000000   -3.8448400000000000
     1.3117719999999999   11.3046539999999993    3.8448410000000002
    -0.0280210000000000    0.0314430000000000   18.5912410000000001
   Li   Ta   O 
    95    33   128
Direct
  0.2836350513660761  0.0958732593837368  0.4427338017937288
  0.2838499646976871  0.0977695041282658  0.9427697046661407
  0.2836727293774146  0.5980578112203787  0.9426569522411938
  0.7838529741306459  0.0964194672104313  0.4422641463413726
  0.7839571228229545  0.0978006368428836  0.9428339268169807
  0.7880854896184104  0.5995241766095134  0.4428721647826279
  0.7845596050858532  0.5983634909602458  0.9429784753014303
  0.0969723825286763  0.2820820076050836  0.3060625109294577
  0.0975958627508078  0.2832515062937446  0.8080170616139739
  0.0924128579245220  0.7930031369429642  0.3006173020809229
  0.0980722486669308  0.7837398742268888  0.8081190425079896
  0.5971631828591342  0.2834951012688407  0.3066070895298196
  0.5990471104789066  0.2821164473008650  0.8091640235221931
  0.5969270858422959  0.7869491810698293  0.3037945400390498
  0.5984500155025216  0.7846971856494704  0.8079093932358745
  0.2153683069859937  0.4026706761718017  0.0557730976230033
  0.2150309123528942  0.3896161016311694  0.5646077553196776
  0.2158289105631823  0.9028166786946414  0.0564123979528048
  0.2164113499546545  0.9052423153609723  0.5589943265501915
  0.7151783111446548  0.4021513142683588  0.0557788260772227
  0.7189151365065527  0.3994781554101010  0.5590561253614581
  0.7158824676430697  0.9029562188307310  0.0560517990601639
  0.7170366704767943  0.9035653298713271  0.5579324075785124
  0.4020468234894636  0.2161780093645618  0.1917338797445041
  0.4009761926672226  0.2132065998593617  0.6949262904100593
  0.4010727540671013  0.7182819290521039  0.1906623276500454
  0.4022232266681485  0.7173241666508403  0.6938161804915666
  0.9012016600457997  0.2165873378944667  0.1913096152386444
  0.9041235176861875  0.2142904586446051  0.6950041555829429
  0.9026286689015706  0.7170820494448549  0.1910890383588821
  0.9037862428516590  0.7161567263709543  0.6939182845006897
  0.1782398129947893  0.2201017546411421  0.1865448636997087
  0.1757339529501465  0.2157987795758203  0.6883803532621471
  0.1778418323851056  0.7212164161144798  0.1872585826597586
  0.1759982728554519  0.7219875981161223  0.6886488158011872
  0.6773916400045579  0.2192065163160208  0.1870546290674042
  0.6840599137826189  0.2148747558518735  0.6892792081794497
  0.6789906656604003  0.7209788235365124  0.1869713928570604
  0.6803963446403714  0.7210821094932598  0.6879860350582021
  0.2191700542236106  0.1785868243888800  0.0618049299112400
  0.2182730187100290  0.1720259941670363  0.5630800414411468
  0.2196015892783834  0.6784691338662228  0.0624150174333948
  0.2182581347017063  0.6865746757382354  0.5658046709372044
  0.7189196161223919  0.1781124924164388  0.0619726250866535
  0.7219405006599047  0.1736660529820497  0.5621896326687406
  0.7194598097147633  0.6790414914160436  0.0620072973947501
  0.7230260486179532  0.6819183369596971  0.5641693601549989
  0.3224392071616151  0.2792560829634425  0.3122683957275569
  0.3211415225088743  0.2796753858453087  0.8126801939957602
  0.3297921686068079  0.7929151475099872  0.3106844095660719
  0.3216005554037764  0.7807828138639721  0.8130074121076305
  0.8217468593740165  0.2792268598785128  0.3122403851207665
  0.8223032069705241  0.2804066114039045  0.8128332876323938
  0.8228377358424339  0.7829370930693713  0.3128927584966377
  0.8232995975304789  0.7813713208054551  0.8129089562057104
  0.2800661529132427  0.3148992294164401  0.4387663761680614
  0.2801549185213474  0.3219034446880968  0.9371733468857144
  0.2781497275646529  0.8445354084053989  0.4383562220180082
  0.2805375999780964  0.8220059635547514  0.9376437339351469
  0.7811632906579931  0.3182882572750501  0.4372721444745054
  0.7800118400187159  0.3224852027566882  0.9371738962750058
  0.7835806113826536  0.8267211435750497  0.4372852138535066
  0.7809549571435284  0.8224400817129833  0.9373833508853195
  0.0293461890102691  0.3418078758009813  0.4347682062755922
  0.0285216606084546  0.3474222964917288  0.9316453142839833
  0.0271469468265693  0.8484072965087108  0.4314489871773830
  0.0293430848782208  0.8474380432467328  0.9322500857439309
  0.5300134026190833  0.3437056036525519  0.4298355407666037
  0.5285093466927435  0.3470553299011598  0.9323152537349912
  0.5299318060064948  0.8517872813997016  0.4326592906063382
  0.5291646799779173  0.8480327016806086  0.9318202625412795
  0.3461429306388837  0.0317077304337587  0.3157001685660958
  0.3478262905884080  0.0281245867836972  0.8189458386248774
  0.3485823506260672  0.5291482039112267  0.3119075265453972
  0.3467554454309649  0.5291353491661539  0.8195907223806671
  0.8465719923434207  0.0295512431620963  0.3167015736998451
  0.8485791765215467  0.0275715841625939  0.8191136218688513
  0.8459557600623171  0.5287834308764445  0.3169364397235412
  0.8481374231002761  0.5286602765414870  0.8186307787781786
  0.4707061117503386  0.1530052881948691  0.0668988119889846
  0.4707893961909093  0.1480331070841174  0.5683702233184462
  0.4707602447681722  0.6533976387298637  0.0669704750922051
  0.4772302806788247  0.6538690763975978  0.5712429805582957
  0.9701210602089816  0.1525741423843314  0.0670478809165189
  0.9720718722823491  0.1510557796619452  0.5685226272644144
  0.9717394194855586  0.6535772014902577  0.0670745600899281
  0.9716974637082103  0.6530620081080585  0.5687466856899874
  0.1516623981954126  0.4729173442104440  0.1802098261950746
  0.1510161250471427  0.4708264408004581  0.6826068542339740
  0.1517818922425391  0.9734814881145084  0.1799346233772923
  0.1530735382246462  0.9704245409945784  0.6834016519049442
  0.6521771644644332  0.4715032248366242  0.1805761238525321
  0.6538916265010286  0.4705684543860187  0.6840278839161869
  0.6516680265272754  0.9720206091009871  0.1809311062117231
  0.6539643458347726  0.9704398830116574  0.6834739834457793
  0.2702776639041531  0.5954929911065463  0.4362056219107799
  0.3889764243698508  0.4682717648513446  0.1865785890231066
  0.3886059268316941  0.4699416433568970  0.6892614137880031
  0.3890089605585274  0.9704452870075144  0.1860334464941218
  0.3900764764399156  0.9687917392799292  0.6887263830439139
  0.8886223219439628  0.4696259981011792  0.1855736666307308
  0.8888044998365032  0.4694029163842899  0.6879651077702036
  0.8882581279913708  0.9695072978422417  0.1865249394320045
  0.8905990489566022  0.9686775013282869  0.6883138471739656
  0.4689443023471469  0.3896155043802665  0.0618643837997226
  0.4737714309058418  0.3824470291877233  0.5662586583099340
  0.4694272221203732  0.8895791062047991  0.0618941374631845
  0.4703879042423011  0.8894990857387342  0.5640361657649251
  0.9693215621254510  0.3892353844290994  0.0618210834633999
  0.9679065670178701  0.3878056065335969  0.5640030938242546
  0.9691264159157740  0.8895580644619159  0.0618610448494223
  0.9691506951280786  0.8900395347561414  0.5629029092866062
  0.1090806866898006  0.0328906695234039  0.3105868608546913
  0.1110481680264783  0.0304945225184596  0.8131703918712390
  0.1061071995337741  0.5247125871196303  0.3123076902858770
  0.1102289529477360  0.5308877867959154  0.8125623837053624
  0.6096655519895577  0.0309917230252594  0.3118125160399430
  0.6110801343109955  0.0312259810235958  0.8126512067599876
  0.6097114454732804  0.5320101747944932  0.3103630009790663
  0.6106140411663361  0.5324462075058634  0.8123693288439995
  0.0306861964538498  0.1090671976962199  0.4371855366497144
  0.0308152834453708  0.1108311409418619  0.9375514900900725
  0.0289369064459493  0.6045039398250225  0.4392773226701578
  0.0310471162976711  0.6107904134869457  0.9374801588046751
  0.5306665047570931  0.1092425057570097  0.4372972284215706
  0.5307962792595688  0.1107889885368749  0.9374319095024859
  0.5396130653253906  0.6087237071470852  0.4383179610491865
  0.5309807321867623  0.6109424129928271  0.9375250172277987
  0.3548620611858695  0.0216451702415341  0.0679003015704609
  0.3554010784496384  0.0207149301638907  0.5692684743863765
  0.3548634847003669  0.5217277066425794  0.0684954306805921
  0.3495333796842957  0.5237058617579038  0.5631096999347349
  0.8544301364015539  0.0208326878180571  0.0683073421969524
  0.8554078371122316  0.0213485840996412  0.5687368507799491
  0.8541417521858321  0.5219579924877493  0.0682499614478260
  0.8547314012961564  0.5206092473491282  0.5685419139732630
  0.0207117112209403  0.3562066269590503  0.1810460995335959
  0.0201277339583470  0.3538329096456891  0.6816057621502409
  0.0212906440225709  0.8548131628645876  0.1812123013827147
  0.0217997061326258  0.8547934014325094  0.6816813505712034
  0.5209913647567035  0.3559616560684304  0.1812475742095998
  0.5188419002412346  0.3564309066895675  0.6804147651420180
  0.5210825977907234  0.8555183356633691  0.1809693550967779
  0.5220554993000377  0.8545224898702486  0.6822967947976153
  0.1485655555416514  0.4652263351294010  0.4389073152618295
  0.1446326275980354  0.4786890864336613  0.9312208376771807
  0.1460611153992133  0.9782446418492654  0.4306927102227149
  0.1451271521687545  0.9788642789491320  0.9316766225982676
  0.6409937373650223  0.4791690403717297  0.4322154168174279
  0.6444257410582992  0.4786063002299485  0.9305496529819450
  0.6442710323773824  0.9783410664389294  0.4311748478994915
  0.6452565905435748  0.9794411034370256  0.9312475067781207
  0.4780265538681476  0.1444265228014601  0.3184235426532851
  0.4789807541465549  0.1455324658480848  0.8183709549784979
  0.4796366368254965  0.6452459660125527  0.3198277226370791
  0.4786845324585727  0.6444009360590357  0.8182975931986363
  0.9785865493585533  0.1447489782922062  0.3180721997301674
  0.9788718727937962  0.1446959828138645  0.8187183857428408
  0.9835571265907745  0.6425592058542051  0.3208000011880898
  0.9787208872621704  0.6448416278383675  0.8185924734446388
  0.2111614602789729  0.1524292422214799  0.3081756435377585
  0.2120648657541224  0.1509944482867311  0.8092637136591492
  0.2189816066046717  0.6554996634733001  0.3137197708791604
  0.2118191822052040  0.6508502820097704  0.8091760972170192
  0.7112971844968712  0.1508010756292251  0.3090247497751761
  0.7120585934837891  0.1517384459051740  0.8087462902674645
  0.7123555032750417  0.6509007484083469  0.3103899967151165
  0.7119232966553568  0.6513432577867349  0.8085476692726985
  0.1511762046056262  0.2102378569269163  0.4409268201150169
  0.1508181258926129  0.2123457797801933  0.9405690719153057
  0.1590232472104347  0.7149446897199709  0.4445903608471298
  0.1512548144126029  0.7118929973760828  0.9408552777480210
  0.6503791806649488  0.2112973971327818  0.4402605577462637
  0.6505520892292935  0.2128488518054255  0.9402403335627625
  0.6517352114568595  0.7140832215731265  0.4422442006289984
  0.6512670522378485  0.7119450534931957  0.9403896542080901
  0.2877179686914886  0.3490377619874536  0.1907379007008174
  0.2874913972530138  0.3494666556984214  0.6892504827020858
  0.2879701073113736  0.8498248935968888  0.1902735136117784
  0.2883092513850798  0.8488403036555567  0.6912513305640076
  0.7881591154184662  0.3494806452924237  0.1912051097088820
  0.7869969515288560  0.3490827808329442  0.6902416532786475
  0.7884046285864699  0.8482523745543489  0.1912769358957647
  0.7885715277157104  0.8489413491985616  0.6908403896693045
  0.3488643240586740  0.2883935572794911  0.0591028377364324
  0.3505601215698135  0.2857365019102502  0.5601287699440647
  0.3493908279025462  0.7878776225890434  0.0593390087950709
  0.3497522090862546  0.7884632706501478  0.5601846183982033
  0.8486022737605055  0.2884645942199384  0.0591865931255100
  0.8474319163351680  0.2878391665221969  0.5581344674624091
  0.8492482119323341  0.7877003905034883  0.0592755209640217
  0.8491615451023620  0.7885319368249810  0.5592066174344765
  0.0896555132659529  0.2850022924453270  0.0656323673232038
  0.0877161565518918  0.2830249119989503  0.5664603227903484
  0.0900491888485462  0.7849901789907605  0.0659490716301150
  0.0899521511584780  0.7857502132313314  0.5664260551651807
  0.5897042617443091  0.2852376936248788  0.0658120592381124
  0.5909621485739081  0.2829780463080454  0.5649545930141358
  0.5901495497615272  0.7850819199753758  0.0657484202675107
  0.5895701567143234  0.7843144337396240  0.5659051862000979
  0.2849747523450219  0.0905453050408482  0.1835355930208848
  0.2848691836522050  0.0892629591527907  0.6844913532976236
  0.2863537949792843  0.5894205706861086  0.1853230497153788
  0.2835027665874463  0.5908088063329942  0.6827819720679855
  0.7846305451246778  0.0897188552301245  0.1840546223233446
  0.7857436582190971  0.0895342740098855  0.6840821730369839
  0.7866703304856131  0.5898477306574392  0.1849580741450865
  0.7839503910904355  0.5899623488437129  0.6837247909077604
  0.4105663817021750  0.2142446836821748  0.4341382514073899
  0.4101564912681894  0.2152083940720075  0.9339379948046158
  0.4054508089222892  0.7086934557075040  0.4344926069914692
  0.4104052999999084  0.7149673515879158  0.9340159065765050
  0.9106594164496329  0.2144619872178026  0.4335891158600447
  0.9099722508529595  0.2150906760929772  0.9340096776859639
  0.9128048085861238  0.7158491079786629  0.4345646511445906
  0.9103555507270258  0.7149063280024208  0.9341279873376891
  0.2170566491827657  0.4105007937886853  0.3170320905880502
  0.2142282372633630  0.4104843027953820  0.8152697522799954
  0.2151691636342079  0.9119895620131047  0.3155762502348836
  0.2150773785796574  0.9099790093302289  0.8161956849508414
  0.7154324509321555  0.4105199522388929  0.3170651743197865
  0.7126786939774092  0.4105030510364998  0.8149495113915250
  0.7145043943658465  0.9101806976050995  0.3159273669911258
  0.7152085123621390  0.9106330427694189  0.8157906540033366
  0.4741624827234787  0.4172119482006167  0.3062260304304587
  0.4702409382931094  0.4165276192754561  0.8051627954495757
  0.4727092258360486  0.9148619302391623  0.3061477827726335
  0.4746570916104744  0.9160782067505266  0.8068663354723213
  0.9755325259292533  0.4159141568768874  0.3068398495816851
  0.9730376598386812  0.4160500002021834  0.8062228997680165
  0.9747288377835517  0.9153825398740238  0.3057807629435416
  0.9743704692784050  0.9155954591499622  0.8067404369512161
  0.4062183657141105  0.4768841701514006  0.4435333869113052
  0.4160369873404548  0.4742374387527732  0.9434882546760264
  0.4148652587411519  0.9725009756077867  0.4440578573599296
  0.4163630918399406  0.9741851766815657  0.9433799830423695
  0.9148073631440141  0.4761692098564225  0.4437220853809123
  0.9155539162312607  0.4742122505127142  0.9435038258967552
  0.9160319682858642  0.9735098956481991  0.4434521890396326
  0.9160162366953628  0.9739638365714924  0.9434816286219530
  0.0249048649627852  0.0845259181463121  0.1925445628283313
  0.0263907123055205  0.0837526560525319  0.6939937547392105
  0.0281788661814559  0.5844857497459941  0.1938706859341011
  0.0250506470800005  0.5833719846711460  0.6934811458981187
  0.5255093476590247  0.0840590250930404  0.1934051213156565
  0.5258829634163433  0.0839779139986305  0.6936621575002775
  0.5269996285165703  0.5846355378623045  0.1936074504450715
  0.5240920676184615  0.5822854558442572  0.6927159098002917
  0.0834649190180059  0.0260658059257608  0.0562561364272725
  0.0845467915604772  0.0258899923282385  0.5562095113813186
  0.0836538852379789  0.5257906480550218  0.0562798932983526
  0.0849205177471362  0.5239664825898629  0.5572753961402555
  0.5839774329077159  0.0261908791092083  0.0561640427317300
  0.5841696142570001  0.0251907562618499  0.5563711219846326
  0.5841058740263136  0.5260177498881049  0.0560907232757302
  0.5812163988879320  0.5232725375269993  0.5556915945170431
 
  0.00000000E+00  0.00000000E+00  0.00000000E+00
  0.00000000E+00  0.00000000E+00  0.00000000E+00
  0.00000000E+00  0.00000000E+00  0.00000000E+00
  0.00000000E+00  0.00000000E+00  0.00000000E+00
  0.00000000E+00  0.00000000E+00  0.00000000E+00
  0.00000000E+00  0.00000000E+00  0.00000000E+00
  0.00000000E+00  0.00000000E+00  0.00000000E+00
  0.00000000E+00  0.00000000E+00  0.00000000E+00
  0.00000000E+00  0.00000000E+00  0.00000000E+00
  0.00000000E+00  0.00000000E+00  0.00000000E+00
  0.00000000E+00  0.00000000E+00  0.00000000E+00
  0.00000000E+00  0.00000000E+00  0.00000000E+00
  0.00000000E+00  0.00000000E+00  0.00000000E+00
  0.00000000E+00  0.00000000E+00  0.00000000E+00
  0.00000000E+00  0.00000000E+00  0.00000000E+00
  0.00000000E+00  0.00000000E+00  0.00000000E+00
  0.00000000E+00  0.00000000E+00  0.00000000E+00
  0.00000000E+00  0.00000000E+00  0.00000000E+00
  0.00000000E+00  0.00000000E+00  0.00000000E+00
  0.00000000E+00  0.00000000E+00  0.00000000E+00
  0.00000000E+00  0.00000000E+00  0.00000000E+00
  0.00000000E+00  0.00000000E+00  0.00000000E+00
  0.00000000E+00  0.00000000E+00  0.00000000E+00
  0.00000000E+00  0.00000000E+00  0.00000000E+00
  0.00000000E+00  0.00000000E+00  0.00000000E+00
  0.00000000E+00  0.00000000E+00  0.00000000E+00
  0.00000000E+00  0.00000000E+00  0.00000000E+00
  0.00000000E+00  0.00000000E+00  0.00000000E+00
  0.00000000E+00  0.00000000E+00  0.00000000E+00
  0.00000000E+00  0.00000000E+00  0.00000000E+00
  0.00000000E+00  0.00000000E+00  0.00000000E+00
  0.00000000E+00  0.00000000E+00  0.00000000E+00
  0.00000000E+00  0.00000000E+00  0.00000000E+00
  0.00000000E+00  0.00000000E+00  0.00000000E+00
  0.00000000E+00  0.00000000E+00  0.00000000E+00
  0.00000000E+00  0.00000000E+00  0.00000000E+00
  0.00000000E+00  0.00000000E+00  0.00000000E+00
  0.00000000E+00  0.00000000E+00  0.00000000E+00
  0.00000000E+00  0.00000000E+00  0.00000000E+00
  0.00000000E+00  0.00000000E+00  0.00000000E+00
  0.00000000E+00  0.00000000E+00  0.00000000E+00
  0.00000000E+00  0.00000000E+00  0.00000000E+00
  0.00000000E+00  0.00000000E+00  0.00000000E+00
  0.00000000E+00  0.00000000E+00  0.00000000E+00
  0.00000000E+00  0.00000000E+00  0.00000000E+00
  0.00000000E+00  0.00000000E+00  0.00000000E+00
  0.00000000E+00  0.00000000E+00  0.00000000E+00
  0.00000000E+00  0.00000000E+00  0.00000000E+00
  0.00000000E+00  0.00000000E+00  0.00000000E+00
  0.00000000E+00  0.00000000E+00  0.00000000E+00
  0.00000000E+00  0.00000000E+00  0.00000000E+00
  0.00000000E+00  0.00000000E+00  0.00000000E+00
  0.00000000E+00  0.00000000E+00  0.00000000E+00
  0.00000000E+00  0.00000000E+00  0.00000000E+00
  0.00000000E+00  0.00000000E+00  0.00000000E+00
  0.00000000E+00  0.00000000E+00  0.00000000E+00
  0.00000000E+00  0.00000000E+00  0.00000000E+00
  0.00000000E+00  0.00000000E+00  0.00000000E+00
  0.00000000E+00  0.00000000E+00  0.00000000E+00
  0.00000000E+00  0.00000000E+00  0.00000000E+00
  0.00000000E+00  0.00000000E+00  0.00000000E+00
  0.00000000E+00  0.00000000E+00  0.00000000E+00
  0.00000000E+00  0.00000000E+00  0.00000000E+00
  0.00000000E+00  0.00000000E+00  0.00000000E+00
  0.00000000E+00  0.00000000E+00  0.00000000E+00
  0.00000000E+00  0.00000000E+00  0.00000000E+00
  0.00000000E+00  0.00000000E+00  0.00000000E+00
  0.00000000E+00  0.00000000E+00  0.00000000E+00
  0.00000000E+00  0.00000000E+00  0.00000000E+00
  0.00000000E+00  0.00000000E+00  0.00000000E+00
  0.00000000E+00  0.00000000E+00  0.00000000E+00
  0.00000000E+00  0.00000000E+00  0.00000000E+00
  0.00000000E+00  0.00000000E+00  0.00000000E+00
  0.00000000E+00  0.00000000E+00  0.00000000E+00
  0.00000000E+00  0.00000000E+00  0.00000000E+00
  0.00000000E+00  0.00000000E+00  0.00000000E+00
  0.00000000E+00  0.00000000E+00  0.00000000E+00
  0.00000000E+00  0.00000000E+00  0.00000000E+00
  0.00000000E+00  0.00000000E+00  0.00000000E+00
  0.00000000E+00  0.00000000E+00  0.00000000E+00
  0.00000000E+00  0.00000000E+00  0.00000000E+00
  0.00000000E+00  0.00000000E+00  0.00000000E+00
  0.00000000E+00  0.00000000E+00  0.00000000E+00
  0.00000000E+00  0.00000000E+00  0.00000000E+00
  0.00000000E+00  0.00000000E+00  0.00000000E+00
  0.00000000E+00  0.00000000E+00  0.00000000E+00
  0.00000000E+00  0.00000000E+00  0.00000000E+00
  0.00000000E+00  0.00000000E+00  0.00000000E+00
  0.00000000E+00  0.00000000E+00  0.00000000E+00
  0.00000000E+00  0.00000000E+00  0.00000000E+00
  0.00000000E+00  0.00000000E+00  0.00000000E+00
  0.00000000E+00  0.00000000E+00  0.00000000E+00
  0.00000000E+00  0.00000000E+00  0.00000000E+00
  0.00000000E+00  0.00000000E+00  0.00000000E+00
  0.00000000E+00  0.00000000E+00  0.00000000E+00
  0.00000000E+00  0.00000000E+00  0.00000000E+00
  0.00000000E+00  0.00000000E+00  0.00000000E+00
  0.00000000E+00  0.00000000E+00  0.00000000E+00
  0.00000000E+00  0.00000000E+00  0.00000000E+00
  0.00000000E+00  0.00000000E+00  0.00000000E+00
  0.00000000E+00  0.00000000E+00  0.00000000E+00
  0.00000000E+00  0.00000000E+00  0.00000000E+00
  0.00000000E+00  0.00000000E+00  0.00000000E+00
  0.00000000E+00  0.00000000E+00  0.00000000E+00
  0.00000000E+00  0.00000000E+00  0.00000000E+00
  0.00000000E+00  0.00000000E+00  0.00000000E+00
  0.00000000E+00  0.00000000E+00  0.00000000E+00
  0.00000000E+00  0.00000000E+00  0.00000000E+00
  0.00000000E+00  0.00000000E+00  0.00000000E+00
  0.00000000E+00  0.00000000E+00  0.00000000E+00
  0.00000000E+00  0.00000000E+00  0.00000000E+00
  0.00000000E+00  0.00000000E+00  0.00000000E+00
  0.00000000E+00  0.00000000E+00  0.00000000E+00
  0.00000000E+00  0.00000000E+00  0.00000000E+00
  0.00000000E+00  0.00000000E+00  0.00000000E+00
  0.00000000E+00  0.00000000E+00  0.00000000E+00
  0.00000000E+00  0.00000000E+00  0.00000000E+00
  0.00000000E+00  0.00000000E+00  0.00000000E+00
  0.00000000E+00  0.00000000E+00  0.00000000E+00
  0.00000000E+00  0.00000000E+00  0.00000000E+00
  0.00000000E+00  0.00000000E+00  0.00000000E+00
  0.00000000E+00  0.00000000E+00  0.00000000E+00
  0.00000000E+00  0.00000000E+00  0.00000000E+00
  0.00000000E+00  0.00000000E+00  0.00000000E+00
  0.00000000E+00  0.00000000E+00  0.00000000E+00
  0.00000000E+00  0.00000000E+00  0.00000000E+00
  0.00000000E+00  0.00000000E+00  0.00000000E+00
  0.00000000E+00  0.00000000E+00  0.00000000E+00
  0.00000000E+00  0.00000000E+00  0.00000000E+00
  0.00000000E+00  0.00000000E+00  0.00000000E+00
  0.00000000E+00  0.00000000E+00  0.00000000E+00
  0.00000000E+00  0.00000000E+00  0.00000000E+00
  0.00000000E+00  0.00000000E+00  0.00000000E+00
  0.00000000E+00  0.00000000E+00  0.00000000E+00
  0.00000000E+00  0.00000000E+00  0.00000000E+00
  0.00000000E+00  0.00000000E+00  0.00000000E+00
  0.00000000E+00  0.00000000E+00  0.00000000E+00
  0.00000000E+00  0.00000000E+00  0.00000000E+00
  0.00000000E+00  0.00000000E+00  0.00000000E+00
  0.00000000E+00  0.00000000E+00  0.00000000E+00
  0.00000000E+00  0.00000000E+00  0.00000000E+00
  0.00000000E+00  0.00000000E+00  0.00000000E+00
  0.00000000E+00  0.00000000E+00  0.00000000E+00
  0.00000000E+00  0.00000000E+00  0.00000000E+00
  0.00000000E+00  0.00000000E+00  0.00000000E+00
  0.00000000E+00  0.00000000E+00  0.00000000E+00
  0.00000000E+00  0.00000000E+00  0.00000000E+00
  0.00000000E+00  0.00000000E+00  0.00000000E+00
  0.00000000E+00  0.00000000E+00  0.00000000E+00
  0.00000000E+00  0.00000000E+00  0.00000000E+00
  0.00000000E+00  0.00000000E+00  0.00000000E+00
  0.00000000E+00  0.00000000E+00  0.00000000E+00
  0.00000000E+00  0.00000000E+00  0.00000000E+00
  0.00000000E+00  0.00000000E+00  0.00000000E+00
  0.00000000E+00  0.00000000E+00  0.00000000E+00
  0.00000000E+00  0.00000000E+00  0.00000000E+00
  0.00000000E+00  0.00000000E+00  0.00000000E+00
  0.00000000E+00  0.00000000E+00  0.00000000E+00
  0.00000000E+00  0.00000000E+00  0.00000000E+00
  0.00000000E+00  0.00000000E+00  0.00000000E+00
  0.00000000E+00  0.00000000E+00  0.00000000E+00
  0.00000000E+00  0.00000000E+00  0.00000000E+00
  0.00000000E+00  0.00000000E+00  0.00000000E+00
  0.00000000E+00  0.00000000E+00  0.00000000E+00
  0.00000000E+00  0.00000000E+00  0.00000000E+00
  0.00000000E+00  0.00000000E+00  0.00000000E+00
  0.00000000E+00  0.00000000E+00  0.00000000E+00
  0.00000000E+00  0.00000000E+00  0.00000000E+00
  0.00000000E+00  0.00000000E+00  0.00000000E+00
  0.00000000E+00  0.00000000E+00  0.00000000E+00
  0.00000000E+00  0.00000000E+00  0.00000000E+00
  0.00000000E+00  0.00000000E+00  0.00000000E+00
  0.00000000E+00  0.00000000E+00  0.00000000E+00
  0.00000000E+00  0.00000000E+00  0.00000000E+00
  0.00000000E+00  0.00000000E+00  0.00000000E+00
  0.00000000E+00  0.00000000E+00  0.00000000E+00
  0.00000000E+00  0.00000000E+00  0.00000000E+00
  0.00000000E+00  0.00000000E+00  0.00000000E+00
  0.00000000E+00  0.00000000E+00  0.00000000E+00
  0.00000000E+00  0.00000000E+00  0.00000000E+00
  0.00000000E+00  0.00000000E+00  0.00000000E+00
  0.00000000E+00  0.00000000E+00  0.00000000E+00
  0.00000000E+00  0.00000000E+00  0.00000000E+00
  0.00000000E+00  0.00000000E+00  0.00000000E+00
  0.00000000E+00  0.00000000E+00  0.00000000E+00
  0.00000000E+00  0.00000000E+00  0.00000000E+00
  0.00000000E+00  0.00000000E+00  0.00000000E+00
  0.00000000E+00  0.00000000E+00  0.00000000E+00
  0.00000000E+00  0.00000000E+00  0.00000000E+00
  0.00000000E+00  0.00000000E+00  0.00000000E+00
  0.00000000E+00  0.00000000E+00  0.00000000E+00
  0.00000000E+00  0.00000000E+00  0.00000000E+00
  0.00000000E+00  0.00000000E+00  0.00000000E+00
  0.00000000E+00  0.00000000E+00  0.00000000E+00
  0.00000000E+00  0.00000000E+00  0.00000000E+00
  0.00000000E+00  0.00000000E+00  0.00000000E+00
  0.00000000E+00  0.00000000E+00  0.00000000E+00
  0.00000000E+00  0.00000000E+00  0.00000000E+00
  0.00000000E+00  0.00000000E+00  0.00000000E+00
  0.00000000E+00  0.00000000E+00  0.00000000E+00
  0.00000000E+00  0.00000000E+00  0.00000000E+00
  0.00000000E+00  0.00000000E+00  0.00000000E+00
  0.00000000E+00  0.00000000E+00  0.00000000E+00
  0.00000000E+00  0.00000000E+00  0.00000000E+00
  0.00000000E+00  0.00000000E+00  0.00000000E+00
  0.00000000E+00  0.00000000E+00  0.00000000E+00
  0.00000000E+00  0.00000000E+00  0.00000000E+00
  0.00000000E+00  0.00000000E+00  0.00000000E+00
  0.00000000E+00  0.00000000E+00  0.00000000E+00
  0.00000000E+00  0.00000000E+00  0.00000000E+00
  0.00000000E+00  0.00000000E+00  0.00000000E+00
  0.00000000E+00  0.00000000E+00  0.00000000E+00
  0.00000000E+00  0.00000000E+00  0.00000000E+00
  0.00000000E+00  0.00000000E+00  0.00000000E+00
  0.00000000E+00  0.00000000E+00  0.00000000E+00
  0.00000000E+00  0.00000000E+00  0.00000000E+00
  0.00000000E+00  0.00000000E+00  0.00000000E+00
  0.00000000E+00  0.00000000E+00  0.00000000E+00
  0.00000000E+00  0.00000000E+00  0.00000000E+00
  0.00000000E+00  0.00000000E+00  0.00000000E+00
  0.00000000E+00  0.00000000E+00  0.00000000E+00
  0.00000000E+00  0.00000000E+00  0.00000000E+00
  0.00000000E+00  0.00000000E+00  0.00000000E+00
  0.00000000E+00  0.00000000E+00  0.00000000E+00
  0.00000000E+00  0.00000000E+00  0.00000000E+00
  0.00000000E+00  0.00000000E+00  0.00000000E+00
  0.00000000E+00  0.00000000E+00  0.00000000E+00
  0.00000000E+00  0.00000000E+00  0.00000000E+00
  0.00000000E+00  0.00000000E+00  0.00000000E+00
  0.00000000E+00  0.00000000E+00  0.00000000E+00
  0.00000000E+00  0.00000000E+00  0.00000000E+00
  0.00000000E+00  0.00000000E+00  0.00000000E+00
  0.00000000E+00  0.00000000E+00  0.00000000E+00
  0.00000000E+00  0.00000000E+00  0.00000000E+00
  0.00000000E+00  0.00000000E+00  0.00000000E+00
  0.00000000E+00  0.00000000E+00  0.00000000E+00
  0.00000000E+00  0.00000000E+00  0.00000000E+00
  0.00000000E+00  0.00000000E+00  0.00000000E+00
  0.00000000E+00  0.00000000E+00  0.00000000E+00
  0.00000000E+00  0.00000000E+00  0.00000000E+00
  0.00000000E+00  0.00000000E+00  0.00000000E+00
  0.00000000E+00  0.00000000E+00  0.00000000E+00
  0.00000000E+00  0.00000000E+00  0.00000000E+00
  0.00000000E+00  0.00000000E+00  0.00000000E+00
  0.00000000E+00  0.00000000E+00  0.00000000E+00
  0.00000000E+00  0.00000000E+00  0.00000000E+00
  0.00000000E+00  0.00000000E+00  0.00000000E+00
  0.00000000E+00  0.00000000E+00  0.00000000E+00
  0.00000000E+00  0.00000000E+00  0.00000000E+00
  0.00000000E+00  0.00000000E+00  0.00000000E+00
  0.00000000E+00  0.00000000E+00  0.00000000E+00
  0.00000000E+00  0.00000000E+00  0.00000000E+00
  0.00000000E+00  0.00000000E+00  0.00000000E+00
  0.00000000E+00  0.00000000E+00  0.00000000E+00
  0.00000000E+00  0.00000000E+00  0.00000000E+00
  0.00000000E+00  0.00000000E+00  0.00000000E+00
