Li63 Ta64 O192                          
   1.00000000000000     
    15.0337320000000005   -0.0060940000000000   -0.0057460000000000
     0.9606630000000000   15.0030490000000007   -0.0057500000000000
     0.9606080000000000    0.9007180000000000   14.9759290000000007
   Li   Ta   O 
    63    64   192
Direct
  0.3905438980606846  0.3896393902573791  0.8892981852311195
  0.3896392745803325  0.8892980368633019  0.3905437403144703
  0.3898731890933291  0.8897463428714403  0.8900290368419306
  0.8892975970136234  0.3905439848102574  0.3896399802947315
  0.8900287889207519  0.3898734510532904  0.8897467567486359
  0.8897464862374136  0.8900287016320902  0.3898732582642594
  0.8898368390199494  0.8898371494108943  0.8898370685186521
  0.1398837104894994  0.3902983226255827  0.1394091865376907
  0.1403035422982626  0.3900906276920750  0.6386357291364604
  0.1398365024699828  0.8898784222133500  0.1399403999044821
  0.1398616632097998  0.8897329157332550  0.6398863574634959
  0.6392667009657700  0.3908256840048878  0.1399299580766353
  0.6395515270540955  0.3899790447367835  0.6395143015943532
  0.6398353734922466  0.8898220813542608  0.1398416098139208
  0.6398953071743918  0.8897324437798062  0.6400249328464724
  0.3902981746068832  0.1394091204769623  0.1398836740866116
  0.3908256421501051  0.1399294873107024  0.6392671569373931
  0.3900909329415754  0.6386343185973686  0.1403038903559519
  0.3899789265587827  0.6395142450525171  0.6395518204688457
  0.8898784409384746  0.1399401545408026  0.1398366674869536
  0.8898223085363526  0.1398420207715318  0.6398347781401128
  0.8897330425209944  0.6398861210801314  0.1398611852152314
  0.8897317194038195  0.6400247453228332  0.6398950362212190
  0.1394089712095408  0.1398836278308906  0.3902981769142997
  0.1399401703871277  0.1398365538854520  0.8898783505147563
  0.1399292487878796  0.6392666540321130  0.3908257326352214
  0.1398416994927203  0.6398352854992027  0.8898218984945814
  0.6386341815794836  0.1403044427423765  0.3900910874374190
  0.6398862254234956  0.1398615327486397  0.8897328541944134
  0.6395139691866092  0.6395519603380251  0.3899791188263535
  0.6400250380715562  0.6398955982603951  0.8897317808649774
  0.1400863503211340  0.1400861703543583  0.1400863622723847
  0.1399323219617870  0.1399736577122042  0.6395693908354971
  0.1399737136310861  0.6395694136723762  0.1399325722923734
  0.1398087472959091  0.6389772661566795  0.6386588687594070
  0.6395693057122855  0.1399325386473720  0.1399736421069449
  0.6386588656736762  0.1398091908347112  0.6389765081000292
  0.6389773537352781  0.6386593411218868  0.1398088357676954
  0.6397447183478064  0.6397449142211258  0.6397443329161305
  0.3910373897369226  0.1401961909951837  0.3894970878008479
  0.3899716031124854  0.1402972752179679  0.8895012394587738
  0.3906503276117306  0.6415485543208774  0.3898109550444602
  0.3898566904062761  0.6399224915523618  0.8898874706115549
  0.8897368042388578  0.1396759417489122  0.3899909509767738
  0.8898596841838611  0.1398413896766257  0.8898819876643245
  0.8896831174194162  0.6394299395743133  0.3899717866226382
  0.8898251903087484  0.6399650739185105  0.8898489201746642
  0.1401958903212872  0.3894969505612309  0.3910364397241608
  0.1396756856831374  0.3899914546704153  0.8897366603720087
  0.1402969048369442  0.8895008429816755  0.3899718783550128
  0.1398414124200684  0.8898818714680061  0.8898599212523663
  0.6415481599596191  0.3898109965148606  0.3906502430168928
  0.6394303877921388  0.3899715513208974  0.8896833417498371
  0.6399220595519068  0.8898876099150428  0.3898567752047910
  0.6399661701655930  0.8898490181463146  0.8898242112685040
  0.3894965641323651  0.3910363827802499  0.1401961530541840
  0.3898115864237823  0.3906501814225720  0.6415486045322041
  0.3899913747501955  0.8897363810152825  0.1396756284581500
  0.3899714401280008  0.8896837262253214  0.6394304242292321
  0.8895014473081204  0.3899721129213560  0.1402964839501095
  0.8898874581176770  0.3898567454080393  0.6399226131099596
  0.8898823479516906  0.8898596408992461  0.1398413438115966
  0.8898489596880239  0.8898260473462400  0.6399643796536196
  0.2484217041833645  0.2484213143154719  0.2484214626333525
  0.2479719491549019  0.2480113411116349  0.7478041256420056
  0.2480105145391320  0.7478048303660429  0.2479725952721310
  0.2480536812239862  0.7480404547366959  0.7480433792696743
  0.7478045193011198  0.2479730280546733  0.2480106911927891
  0.7480440243086122  0.2480541499614048  0.7480399337041703
  0.7480406573219582  0.7480440547959546  0.2480537377722243
  0.7481040488939215  0.7481044113182378  0.7481033687336733
  0.4961861240446197  0.2513204520934451  0.4970783358605644
  0.4981089168100183  0.2482068974632199  0.9976743040984957
  0.4984874571110325  0.7476793693942696  0.4982851548995271
  0.4981011969892037  0.7479687833089912  0.9980613211772038
  0.9974974890573591  0.2479958584710715  0.4981615741921317
  0.9979976873520826  0.2481101374188697  0.9981430424159115
  0.9979738369763496  0.7480896867127456  0.4979966732880499
  0.9981345225424860  0.7480515983281819  0.9981042617660663
  0.2513199032645730  0.4970784511511823  0.4961868071942774
  0.2479958599579959  0.4981612220333744  0.9974970550281768
  0.2482064823029404  0.9976749869679580  0.4981091188877471
  0.2481097869033917  0.9981443568822073  0.9979977090123455
  0.7476791768837288  0.4982852731825247  0.4984881999881523
  0.7480900907230676  0.4979968700616055  0.9979742146665984
  0.7479682588899266  0.9980622211855916  0.4981013186425045
  0.7480516162267605  0.9981048179955678  0.9981342868294476
  0.4970780981906486  0.4961869949633808  0.2513202692324583
  0.4982848080001148  0.4984884222136259  0.7476788076374845
  0.4981612584666522  0.9974976645205800  0.2479964331108917
  0.4979976689146142  0.9979747862734456  0.7480895550837730
  0.9976736890038467  0.4981093486495354  0.2482073266776439
  0.9980623773994353  0.4981013087439123  0.7479673045959316
  0.9981438883580296  0.9979980131476296  0.2481097038729274
  0.9981044149884966  0.9981357104653696  0.7480512893501370
  0.4973188652433436  0.4973200509249338  0.4973198036797442
  0.4983507275021068  0.4983627242669044  0.9980455982179066
  0.4983631938535567  0.9980469080543699  0.4983505536331094
  0.4981664641324315  0.9979937858039207  0.9978582417349315
  0.9980450786755100  0.4983513791035108  0.4983621213316596
  0.9978584456748223  0.4981664886123625  0.9979926057784638
  0.9979937503976259  0.9978593585660036  0.4981658320262596
  0.9980951164282175  0.9980956091844320  0.9980944307171455
  0.2480396312311868  0.4977894449324936  0.2478947432590388
  0.2481598514688983  0.4980621610686171  0.7474701604847098
  0.2481437981011183  0.9979730197381542  0.2481886375308946
  0.2482801858243562  0.9979440864219598  0.7481301012214132
  0.7469932316145389  0.4984493909731498  0.2478167731608210
  0.7483116658684565  0.4980465692803477  0.7480729256242213
  0.7480521761789660  0.9981474560244337  0.2480963036132451
  0.7481141070386528  0.9982173511280266  0.7479944369338227
  0.4977889725334919  0.2478946481999671  0.2480392855979332
  0.4984489763206668  0.2478172231347529  0.7469929032675893
  0.4980620598138188  0.7474700649253734  0.2481609028436651
  0.4980458731097031  0.7480740127382077  0.7483110209817596
  0.9979726618600111  0.2481888634307268  0.2481438208536559
  0.9981466587407795  0.2480973146897867  0.7480516012204248
  0.9979435194328303  0.7481300910793891  0.2482799504003737
  0.9982155745763706  0.7479960250259694  0.7481137995725504
  0.2478938912330690  0.2480386944709920  0.4977893291542159
  0.2481883858795584  0.2481442358074446  0.9979725368151264
  0.2478166439133815  0.7469931374719820  0.4984482989132388
  0.2480960879275003  0.7480526819248752  0.9981467741083705
  0.7474702778362996  0.2481606632294699  0.4980618838257840
  0.7481303750699695  0.2482802073416721  0.9979425544465244
  0.7480729057250670  0.7483112697804444  0.4980456216265310
  0.7479955582501177  0.7481141294061047  0.9982152159947049
  0.2080803837901968  0.3687655347382162  0.2707583364266739
  0.2080496598360995  0.3684821784135224  0.7702041752223963
  0.2079648246066554  0.8685600450893318  0.2701302292240157
  0.2079023661134656  0.8683280455902178  0.7706400375104110
  0.7085143800978315  0.3682439536904027  0.2708908101836940
  0.7081761122294807  0.3684294174399483  0.7706782202610114
  0.7081144973845568  0.8684160178896434  0.2706198568834921
  0.7081568388863815  0.8684825808330743  0.7705698905819744
  0.4582433601204485  0.3685692129506748  0.0204116360768509
  0.4599897784392084  0.3695286059788714  0.5255444189637970
  0.4579521307834682  0.8683153429906199  0.0203982406311738
  0.4578638794392447  0.8680865881576452  0.5204589598851612
  0.9579601419727410  0.3684488581495771  0.0206666494110124
  0.9582670043436892  0.3685350165696946  0.5207711903621188
  0.9580920251993916  0.8684720210918968  0.0205452793883723
  0.9577456173169594  0.8684946089561336  0.5206657250596933
  0.2080647373588889  0.1184690972711451  0.0206825099145931
  0.2078694558745511  0.1179143178859121  0.5206745493799687
  0.2078682032058552  0.6185554502924901  0.0201655967243823
  0.2079438063027936  0.6183120216505102  0.5196553038301985
  0.7082089254542296  0.1184684048212432  0.0206286110996032
  0.7081091562508846  0.1183980745548396  0.5207054407630736
  0.7080782722612753  0.6184225109386148  0.0205013531884788
  0.7082849960260376  0.6188285291302904  0.5208201976292273
  0.4577648648076931  0.1177590101840735  0.2691878488596871
  0.4579939110058717  0.1181647632691423  0.7706242974443995
  0.4587154199158050  0.6182139578983481  0.2709658160865160
  0.4580050060278040  0.6187014236407791  0.7710052646007384
  0.9583775265003140  0.1184081910658819  0.2707145793420196
  0.9580382853534246  0.1184194287380151  0.7706707772518939
  0.9577641718303127  0.6186694699758633  0.2705013614387823
  0.9580957002932280  0.6184561148334922  0.7706669983006975
  0.2707580236627933  0.2080805451426286  0.3687654292319209
  0.2701300121471917  0.2079646735293679  0.8685602304150706
  0.2708910394559751  0.7085144333886788  0.3682438802669168
  0.2706195558627655  0.7081145206773627  0.8684157456223147
  0.7702053411641216  0.2080504294122818  0.3684817392759783
  0.7706400287207913  0.2079019666263733  0.8683282097557665
  0.7706780790932797  0.7081764950390763  0.3684283891788596
  0.7705719615130491  0.7081553219092100  0.8684823674234750
  0.0206822374355795  0.2080648057722811  0.1184690204815979
  0.0201653148844656  0.2078681363565451  0.6185556002842034
  0.0206284307407643  0.7082089668302061  0.1184681507493579
  0.0205017880233171  0.7080778099465874  0.6184230520298399
  0.5206746180587629  0.2078695546429259  0.1179147549231487
  0.5196539590213618  0.2079448142945708  0.6183130379137580
  0.5207061834021260  0.7081093786546901  0.1183980655832215
  0.5208203109976566  0.7082854447110094  0.6188290952841982
  0.2691863335472604  0.4577640679644404  0.1177599451696878
  0.2709660814506663  0.4587151048671245  0.6182131358544467
  0.2707148333330807  0.9583778448449181  0.1184081727151209
  0.2705017159862635  0.9577643189086231  0.6186697987929222
  0.7706242816311857  0.4579941192307260  0.1181646201184776
  0.7710043567057170  0.4580049189650524  0.6187011708013088
  0.7706709891160415  0.9580383117475293  0.1184196898369834
  0.7706690475809808  0.9580978889804044  0.6184547914419340
  0.0204111801241211  0.4582432024706335  0.3685690034448328
  0.0203982309689508  0.4579525814581231  0.8683149192329935
  0.0206674378508325  0.9579605628176679  0.3684485096168899
  0.0205453896726837  0.9580917403572045  0.8684720702993829
  0.5255442585803678  0.4599896927022797  0.3695293141392995
  0.5204587553053912  0.4578632555582587  0.8680871604297806
  0.5207713249309478  0.9582656303154167  0.3685355544654669
  0.5206665361568525  0.9577458785057260  0.8684944353479054
  0.3687651855360699  0.2707582498550707  0.2080807815688317
  0.3682435570441456  0.2708912073022987  0.7085146116541168
  0.3684823617177599  0.7702045772909329  0.2080496240363132
  0.3684280206097910  0.7706782977191367  0.7081763642400176
  0.8685599079910560  0.2701305972002785  0.2079640585844089
  0.8684149969153268  0.2706204684011553  0.7081142022912630
  0.8683273597862495  0.7706407279298730  0.2079020863822763
  0.8684838543761018  0.7705714316287740  0.7081533145642922
  0.1177594506533168  0.2691875630005072  0.4577646938520985
  0.1184076267334575  0.2707149401754947  0.9583775431449908
  0.1181643432401742  0.7706237612167470  0.4579940144922716
  0.1184192538797930  0.7706706313502707  0.9580380035380074
  0.6182127465891440  0.2709656521917125  0.4587150311709891
  0.6186694086561175  0.2705014821905252  0.9577644850017109
  0.6187006105147361  0.7710048671394816  0.4580044495932185
  0.6184554264423241  0.7706674509655684  0.9580965263146695
  0.3685690632428731  0.0204114523441490  0.4582430674747968
  0.3684484887972843  0.0206673251548182  0.9579603505002225
  0.3695281497529663  0.5255441579750055  0.4599896314560965
  0.3685352398675690  0.5207713824836375  0.9582659014103854
  0.8683159201077899  0.0203985052924764  0.4579510249943368
  0.8684716254226643  0.0205453172584029  0.9580917235875575
  0.8680858572915113  0.5204584979794831  0.4578643419256636
  0.8684938876583601  0.5206652632450002  0.9577446924390429
  0.1184687546912357  0.0206822886557987  0.2080647918648779
  0.1184687283202379  0.0206288463826709  0.7082083811608015
  0.1179144709280422  0.5206746834273090  0.2078696297857192
  0.1183976212283184  0.5207071695624919  0.7081075455924903
  0.6185556962220744  0.0201657638345196  0.2078679683180980
  0.6184226304457141  0.0205018318754142  0.7080782267348624
  0.6183126117373234  0.5196556229291360  0.2079430222760053
  0.6188289940246818  0.5208209233310583  0.7082853214016254
  0.2086113488252153  0.2705758969936767  0.1186128813639158
  0.2074039063103612  0.2689633353502288  0.6191322126787924
  0.2078331441368846  0.7710074771356759  0.1182442327925131
  0.2076212170211775  0.7702423818023476  0.6186564403741102
  0.7085009161162930  0.2711475276535182  0.1181196470552166
  0.7080267824675204  0.2707086839853972  0.6185360042127996
  0.7080120189781098  0.7709086232127191  0.1184228021026570
  0.7081446044820936  0.7707351083758169  0.6184916638576325
  0.4619006189418329  0.2633820043541562  0.3691003599611946
  0.4583350345709150  0.2698606413274689  0.8681616874301952
  0.4580660048079181  0.7701465626566275  0.3685212308619015
  0.4578516211871886  0.7708089112729297  0.8685771391040547
  0.9577155793490846  0.2707778891095813  0.3684047879985641
  0.9581236369549302  0.2706263005674074  0.8684308958699560
  0.9576674070556592  0.7710957027706584  0.3684202330773658
  0.9580508854164194  0.7706310237229772  0.8684260402749402
  0.2079848792886736  0.0203463689931382  0.3685375542428631
  0.2079051620003796  0.0203802908035513  0.8685443054180269
  0.2091037938695024  0.5209813578427642  0.3683386277854694
  0.2080855415312541  0.5205057864480906  0.8680968172358661
  0.7078900389923319  0.0207157665943214  0.3684429578681900
  0.7081085385086467  0.0205955979649914  0.8684126428663745
  0.7087989027929922  0.5209967671984828  0.3684456282772999
  0.7082844601497555  0.5207981138590867  0.8682932255229190
  0.4579792161924630  0.0198451883745818  0.1182915230493933
  0.4576590427992002  0.0196208783586513  0.6189857872289437
  0.4606296383790749  0.5214037722742404  0.1176218949450742
  0.4590723914394843  0.5211980462318877  0.6189054409396633
  0.9580931580903496  0.0206362987727360  0.1184496853003694
  0.9579670596929049  0.0205187323897391  0.6185422304974324
  0.9580953190022683  0.5208326692789171  0.1182258685214919
  0.9573321594019575  0.5208537193160439  0.6187695015269057
  0.1186124060792793  0.2086118982950182  0.2705758088356092
  0.1182443276309826  0.2078334012605296  0.7710079338127684
  0.1181192524851866  0.7085013993980454  0.2711474270907104
  0.1184225282256648  0.7080122085771592  0.7709084927691308
  0.6191324606015627  0.2074044352497921  0.2689638907671466
  0.6186562427491609  0.2076216143932967  0.7702425279611163
  0.6185363271623885  0.7080272179117060  0.2707083768074980
  0.6184919568853644  0.7081493359295763  0.7707375489782962
  0.3685374065961255  0.2079850482867585  0.0203466971603063
  0.3683388904799401  0.2091040655130669  0.5209819928405395
  0.3684436314084252  0.7078900010546505  0.0207159383464912
  0.3684453682204136  0.7087997257547514  0.5209964887208116
  0.8685440502729875  0.2079050147821988  0.0203804927037012
  0.8680964969421581  0.2080859254033456  0.5205060633685434
  0.8684125541271115  0.7081082958096232  0.0205954247321714
  0.8682925352516264  0.7082845918352447  0.5207981252879037
  0.1182908121783868  0.4579795603210997  0.0198458275142812
  0.1176224678869389  0.4606295152898952  0.5214045806987357
  0.1184498097028595  0.9580935047494137  0.0206367103293061
  0.1182258652864761  0.9580958019534549  0.5208331734778042
  0.6189859888022227  0.4576585806250364  0.0196211954990346
  0.6189043003440631  0.4590711664743452  0.5211976873454631
  0.6185430061846162  0.9579669552569854  0.0205192120298747
  0.6187685485305536  0.9573335162269885  0.5208550082967776
  0.3690991360130980  0.4619023079754072  0.2633839004295169
  0.3685214666453547  0.4580661923462443  0.7701469711243263
  0.3684052213281888  0.9577154433366957  0.2707780852258921
  0.3684203590883470  0.9576681026595537  0.7710964796270403
  0.8681612704679367  0.4583361895558014  0.2698635151383755
  0.8685761373542462  0.4578528325733089  0.7708089608734738
  0.8684302971623055  0.9581241843695949  0.2706263265547975
  0.8684266272505354  0.9580540161407924  0.7706310011532267
  0.2705762972088692  0.1186124621208933  0.2086121046162930
  0.2711474321319542  0.1181191667990404  0.7085015898093872
  0.2689636727824265  0.6191315057156217  0.2074049570286078
  0.2707083909810706  0.6185364236391280  0.7080271799788846
  0.7710078614421363  0.1182441131500482  0.2078334383691569
  0.7709090623167540  0.1184234822091952  0.7080112752759788
  0.7702428533343095  0.6186562673190252  0.2076214740014137
  0.7707352635518490  0.6184921799925291  0.7081474347944976
  0.0198461121479809  0.1182908050215374  0.4579792884666318
  0.0206366859939635  0.1184493153548303  0.9580939086649423
  0.0196212486114788  0.6189851855870074  0.4576587035527453
  0.0205188211271548  0.6185425772546367  0.9579667612724734
  0.5214041603649378  0.1176220601762594  0.4606298240281106
  0.5208332313763506  0.1182256881888577  0.9580965682471358
  0.5211973216764747  0.6189044159630797  0.4590717585578830
  0.5208550507360314  0.6187683458395981  0.9573336330833655
  0.2633825410881485  0.3690998146379201  0.4619014046397112
  0.2707781548321222  0.3684049584229854  0.9577159722461701
  0.2698606329957514  0.8681609920527720  0.4583352831056615
  0.2706263556938211  0.8684300829879916  0.9581245830731362
  0.7701465004663461  0.3685214820734402  0.4580660741725850
  0.7710959345855528  0.3684199850632410  0.9576679534189836
  0.7708089518213797  0.8685763325106564  0.4578529565140244
  0.7706304613577188  0.8684258955797546  0.9580530819218822
  0.0203463126584111  0.3685375344583832  0.2079850447288862
  0.0207156978687095  0.3684435285840593  0.7078906068223176
  0.0203806236305653  0.8685446266123975  0.2079056516566666
  0.0205952538593266  0.8684122682890916  0.7081098094204066
  0.5209817813089401  0.3683384448744675  0.2091057489795816
  0.5209963878154511  0.3684455089943839  0.7087999363524062
  0.5205084679081153  0.8680960426967701  0.2080883256915982
  0.5207982271062548  0.8682926910510389  0.7082853645337508
 
  0.00000000E+00  0.00000000E+00  0.00000000E+00
  0.00000000E+00  0.00000000E+00  0.00000000E+00
  0.00000000E+00  0.00000000E+00  0.00000000E+00
  0.00000000E+00  0.00000000E+00  0.00000000E+00
  0.00000000E+00  0.00000000E+00  0.00000000E+00
  0.00000000E+00  0.00000000E+00  0.00000000E+00
  0.00000000E+00  0.00000000E+00  0.00000000E+00
  0.00000000E+00  0.00000000E+00  0.00000000E+00
  0.00000000E+00  0.00000000E+00  0.00000000E+00
  0.00000000E+00  0.00000000E+00  0.00000000E+00
  0.00000000E+00  0.00000000E+00  0.00000000E+00
  0.00000000E+00  0.00000000E+00  0.00000000E+00
  0.00000000E+00  0.00000000E+00  0.00000000E+00
  0.00000000E+00  0.00000000E+00  0.00000000E+00
  0.00000000E+00  0.00000000E+00  0.00000000E+00
  0.00000000E+00  0.00000000E+00  0.00000000E+00
  0.00000000E+00  0.00000000E+00  0.00000000E+00
  0.00000000E+00  0.00000000E+00  0.00000000E+00
  0.00000000E+00  0.00000000E+00  0.00000000E+00
  0.00000000E+00  0.00000000E+00  0.00000000E+00
  0.00000000E+00  0.00000000E+00  0.00000000E+00
  0.00000000E+00  0.00000000E+00  0.00000000E+00
  0.00000000E+00  0.00000000E+00  0.00000000E+00
  0.00000000E+00  0.00000000E+00  0.00000000E+00
  0.00000000E+00  0.00000000E+00  0.00000000E+00
  0.00000000E+00  0.00000000E+00  0.00000000E+00
  0.00000000E+00  0.00000000E+00  0.00000000E+00
  0.00000000E+00  0.00000000E+00  0.00000000E+00
  0.00000000E+00  0.00000000E+00  0.00000000E+00
  0.00000000E+00  0.00000000E+00  0.00000000E+00
  0.00000000E+00  0.00000000E+00  0.00000000E+00
  0.00000000E+00  0.00000000E+00  0.00000000E+00
  0.00000000E+00  0.00000000E+00  0.00000000E+00
  0.00000000E+00  0.00000000E+00  0.00000000E+00
  0.00000000E+00  0.00000000E+00  0.00000000E+00
  0.00000000E+00  0.00000000E+00  0.00000000E+00
  0.00000000E+00  0.00000000E+00  0.00000000E+00
  0.00000000E+00  0.00000000E+00  0.00000000E+00
  0.00000000E+00  0.00000000E+00  0.00000000E+00
  0.00000000E+00  0.00000000E+00  0.00000000E+00
  0.00000000E+00  0.00000000E+00  0.00000000E+00
  0.00000000E+00  0.00000000E+00  0.00000000E+00
  0.00000000E+00  0.00000000E+00  0.00000000E+00
  0.00000000E+00  0.00000000E+00  0.00000000E+00
  0.00000000E+00  0.00000000E+00  0.00000000E+00
  0.00000000E+00  0.00000000E+00  0.00000000E+00
  0.00000000E+00  0.00000000E+00  0.00000000E+00
  0.00000000E+00  0.00000000E+00  0.00000000E+00
  0.00000000E+00  0.00000000E+00  0.00000000E+00
  0.00000000E+00  0.00000000E+00  0.00000000E+00
  0.00000000E+00  0.00000000E+00  0.00000000E+00
  0.00000000E+00  0.00000000E+00  0.00000000E+00
  0.00000000E+00  0.00000000E+00  0.00000000E+00
  0.00000000E+00  0.00000000E+00  0.00000000E+00
  0.00000000E+00  0.00000000E+00  0.00000000E+00
  0.00000000E+00  0.00000000E+00  0.00000000E+00
  0.00000000E+00  0.00000000E+00  0.00000000E+00
  0.00000000E+00  0.00000000E+00  0.00000000E+00
  0.00000000E+00  0.00000000E+00  0.00000000E+00
  0.00000000E+00  0.00000000E+00  0.00000000E+00
  0.00000000E+00  0.00000000E+00  0.00000000E+00
  0.00000000E+00  0.00000000E+00  0.00000000E+00
  0.00000000E+00  0.00000000E+00  0.00000000E+00
  0.00000000E+00  0.00000000E+00  0.00000000E+00
  0.00000000E+00  0.00000000E+00  0.00000000E+00
  0.00000000E+00  0.00000000E+00  0.00000000E+00
  0.00000000E+00  0.00000000E+00  0.00000000E+00
  0.00000000E+00  0.00000000E+00  0.00000000E+00
  0.00000000E+00  0.00000000E+00  0.00000000E+00
  0.00000000E+00  0.00000000E+00  0.00000000E+00
  0.00000000E+00  0.00000000E+00  0.00000000E+00
  0.00000000E+00  0.00000000E+00  0.00000000E+00
  0.00000000E+00  0.00000000E+00  0.00000000E+00
  0.00000000E+00  0.00000000E+00  0.00000000E+00
  0.00000000E+00  0.00000000E+00  0.00000000E+00
  0.00000000E+00  0.00000000E+00  0.00000000E+00
  0.00000000E+00  0.00000000E+00  0.00000000E+00
  0.00000000E+00  0.00000000E+00  0.00000000E+00
  0.00000000E+00  0.00000000E+00  0.00000000E+00
  0.00000000E+00  0.00000000E+00  0.00000000E+00
  0.00000000E+00  0.00000000E+00  0.00000000E+00
  0.00000000E+00  0.00000000E+00  0.00000000E+00
  0.00000000E+00  0.00000000E+00  0.00000000E+00
  0.00000000E+00  0.00000000E+00  0.00000000E+00
  0.00000000E+00  0.00000000E+00  0.00000000E+00
  0.00000000E+00  0.00000000E+00  0.00000000E+00
  0.00000000E+00  0.00000000E+00  0.00000000E+00
  0.00000000E+00  0.00000000E+00  0.00000000E+00
  0.00000000E+00  0.00000000E+00  0.00000000E+00
  0.00000000E+00  0.00000000E+00  0.00000000E+00
  0.00000000E+00  0.00000000E+00  0.00000000E+00
  0.00000000E+00  0.00000000E+00  0.00000000E+00
  0.00000000E+00  0.00000000E+00  0.00000000E+00
  0.00000000E+00  0.00000000E+00  0.00000000E+00
  0.00000000E+00  0.00000000E+00  0.00000000E+00
  0.00000000E+00  0.00000000E+00  0.00000000E+00
  0.00000000E+00  0.00000000E+00  0.00000000E+00
  0.00000000E+00  0.00000000E+00  0.00000000E+00
  0.00000000E+00  0.00000000E+00  0.00000000E+00
  0.00000000E+00  0.00000000E+00  0.00000000E+00
  0.00000000E+00  0.00000000E+00  0.00000000E+00
  0.00000000E+00  0.00000000E+00  0.00000000E+00
  0.00000000E+00  0.00000000E+00  0.00000000E+00
  0.00000000E+00  0.00000000E+00  0.00000000E+00
  0.00000000E+00  0.00000000E+00  0.00000000E+00
  0.00000000E+00  0.00000000E+00  0.00000000E+00
  0.00000000E+00  0.00000000E+00  0.00000000E+00
  0.00000000E+00  0.00000000E+00  0.00000000E+00
  0.00000000E+00  0.00000000E+00  0.00000000E+00
  0.00000000E+00  0.00000000E+00  0.00000000E+00
  0.00000000E+00  0.00000000E+00  0.00000000E+00
  0.00000000E+00  0.00000000E+00  0.00000000E+00
  0.00000000E+00  0.00000000E+00  0.00000000E+00
  0.00000000E+00  0.00000000E+00  0.00000000E+00
  0.00000000E+00  0.00000000E+00  0.00000000E+00
  0.00000000E+00  0.00000000E+00  0.00000000E+00
  0.00000000E+00  0.00000000E+00  0.00000000E+00
  0.00000000E+00  0.00000000E+00  0.00000000E+00
  0.00000000E+00  0.00000000E+00  0.00000000E+00
  0.00000000E+00  0.00000000E+00  0.00000000E+00
  0.00000000E+00  0.00000000E+00  0.00000000E+00
  0.00000000E+00  0.00000000E+00  0.00000000E+00
  0.00000000E+00  0.00000000E+00  0.00000000E+00
  0.00000000E+00  0.00000000E+00  0.00000000E+00
  0.00000000E+00  0.00000000E+00  0.00000000E+00
  0.00000000E+00  0.00000000E+00  0.00000000E+00
  0.00000000E+00  0.00000000E+00  0.00000000E+00
  0.00000000E+00  0.00000000E+00  0.00000000E+00
  0.00000000E+00  0.00000000E+00  0.00000000E+00
  0.00000000E+00  0.00000000E+00  0.00000000E+00
  0.00000000E+00  0.00000000E+00  0.00000000E+00
  0.00000000E+00  0.00000000E+00  0.00000000E+00
  0.00000000E+00  0.00000000E+00  0.00000000E+00
  0.00000000E+00  0.00000000E+00  0.00000000E+00
  0.00000000E+00  0.00000000E+00  0.00000000E+00
  0.00000000E+00  0.00000000E+00  0.00000000E+00
  0.00000000E+00  0.00000000E+00  0.00000000E+00
  0.00000000E+00  0.00000000E+00  0.00000000E+00
  0.00000000E+00  0.00000000E+00  0.00000000E+00
  0.00000000E+00  0.00000000E+00  0.00000000E+00
  0.00000000E+00  0.00000000E+00  0.00000000E+00
  0.00000000E+00  0.00000000E+00  0.00000000E+00
  0.00000000E+00  0.00000000E+00  0.00000000E+00
  0.00000000E+00  0.00000000E+00  0.00000000E+00
  0.00000000E+00  0.00000000E+00  0.00000000E+00
  0.00000000E+00  0.00000000E+00  0.00000000E+00
  0.00000000E+00  0.00000000E+00  0.00000000E+00
  0.00000000E+00  0.00000000E+00  0.00000000E+00
  0.00000000E+00  0.00000000E+00  0.00000000E+00
  0.00000000E+00  0.00000000E+00  0.00000000E+00
  0.00000000E+00  0.00000000E+00  0.00000000E+00
  0.00000000E+00  0.00000000E+00  0.00000000E+00
  0.00000000E+00  0.00000000E+00  0.00000000E+00
  0.00000000E+00  0.00000000E+00  0.00000000E+00
  0.00000000E+00  0.00000000E+00  0.00000000E+00
  0.00000000E+00  0.00000000E+00  0.00000000E+00
  0.00000000E+00  0.00000000E+00  0.00000000E+00
  0.00000000E+00  0.00000000E+00  0.00000000E+00
  0.00000000E+00  0.00000000E+00  0.00000000E+00
  0.00000000E+00  0.00000000E+00  0.00000000E+00
  0.00000000E+00  0.00000000E+00  0.00000000E+00
  0.00000000E+00  0.00000000E+00  0.00000000E+00
  0.00000000E+00  0.00000000E+00  0.00000000E+00
  0.00000000E+00  0.00000000E+00  0.00000000E+00
  0.00000000E+00  0.00000000E+00  0.00000000E+00
  0.00000000E+00  0.00000000E+00  0.00000000E+00
  0.00000000E+00  0.00000000E+00  0.00000000E+00
  0.00000000E+00  0.00000000E+00  0.00000000E+00
  0.00000000E+00  0.00000000E+00  0.00000000E+00
  0.00000000E+00  0.00000000E+00  0.00000000E+00
  0.00000000E+00  0.00000000E+00  0.00000000E+00
  0.00000000E+00  0.00000000E+00  0.00000000E+00
  0.00000000E+00  0.00000000E+00  0.00000000E+00
  0.00000000E+00  0.00000000E+00  0.00000000E+00
  0.00000000E+00  0.00000000E+00  0.00000000E+00
  0.00000000E+00  0.00000000E+00  0.00000000E+00
  0.00000000E+00  0.00000000E+00  0.00000000E+00
  0.00000000E+00  0.00000000E+00  0.00000000E+00
  0.00000000E+00  0.00000000E+00  0.00000000E+00
  0.00000000E+00  0.00000000E+00  0.00000000E+00
  0.00000000E+00  0.00000000E+00  0.00000000E+00
  0.00000000E+00  0.00000000E+00  0.00000000E+00
  0.00000000E+00  0.00000000E+00  0.00000000E+00
  0.00000000E+00  0.00000000E+00  0.00000000E+00
  0.00000000E+00  0.00000000E+00  0.00000000E+00
  0.00000000E+00  0.00000000E+00  0.00000000E+00
  0.00000000E+00  0.00000000E+00  0.00000000E+00
  0.00000000E+00  0.00000000E+00  0.00000000E+00
  0.00000000E+00  0.00000000E+00  0.00000000E+00
  0.00000000E+00  0.00000000E+00  0.00000000E+00
  0.00000000E+00  0.00000000E+00  0.00000000E+00
  0.00000000E+00  0.00000000E+00  0.00000000E+00
  0.00000000E+00  0.00000000E+00  0.00000000E+00
  0.00000000E+00  0.00000000E+00  0.00000000E+00
  0.00000000E+00  0.00000000E+00  0.00000000E+00
  0.00000000E+00  0.00000000E+00  0.00000000E+00
  0.00000000E+00  0.00000000E+00  0.00000000E+00
  0.00000000E+00  0.00000000E+00  0.00000000E+00
  0.00000000E+00  0.00000000E+00  0.00000000E+00
  0.00000000E+00  0.00000000E+00  0.00000000E+00
  0.00000000E+00  0.00000000E+00  0.00000000E+00
  0.00000000E+00  0.00000000E+00  0.00000000E+00
  0.00000000E+00  0.00000000E+00  0.00000000E+00
  0.00000000E+00  0.00000000E+00  0.00000000E+00
  0.00000000E+00  0.00000000E+00  0.00000000E+00
  0.00000000E+00  0.00000000E+00  0.00000000E+00
  0.00000000E+00  0.00000000E+00  0.00000000E+00
  0.00000000E+00  0.00000000E+00  0.00000000E+00