Li63 Nb64 O192                          
   1.00000000000000     
    15.1469600000000000   -0.0012470000000000   -0.0011610000000000
     1.0576070000000000   15.1097420000000007   -0.0009680000000000
     1.0576360000000000    0.9859670000000000   15.0777149999999995
   Li   Nb   O 
    63    64   192
Direct
  0.2499388157004390  0.2502571277972550  0.2492760132906113
  0.2504070075905105  0.2503028609200442  0.7491340117299856
  0.2500072056967326  0.7501082721848817  0.2500951590338616
  0.2499957869562834  0.7498883840501591  0.7500556208583831
  0.7493389624160756  0.2510662703053583  0.2503189989526007
  0.7500293424368252  0.2500703052765871  0.7502221924630348
  0.7500806007160961  0.7499993104758857  0.2499691497001635
  0.7501960705710005  0.7499482128418364  0.7502547388133181
  0.0001779741996515  0.2500466786314135  0.9999822883770975
  0.9994417368464781  0.2504570138730529  0.4998295093690004
  0.0000157278536719  0.7500151574572556  0.0000161139243673
  0.9999815288432714  0.7501775622063960  0.5000472469837547
  0.5004575872414279  0.2498296469548649  0.9994423718928900
  0.5000470209927883  0.7499814018459219  0.0001784112354315
  0.4998290880226577  0.7494410981608794  0.5004579669671259
  0.2500945913013268  0.0000068159110995  0.0001092909929667
  0.2492753926886948  0.9999390012767861  0.5002578720025426
  0.2499679836387472  0.5000822421834599  0.9999990900831506
  0.2503185652277722  0.4993387854610631  0.5010663760090495
  0.7500554820530994  0.9999951662576407  0.9998890358715258
  0.7491343757442550  0.0004063642015524  0.5003035329082905
  0.7502538222978998  0.5001953072348684  0.9999490318909423
  0.7502218087449819  0.5000288980629009  0.5000709820782561
  0.0001089826430061  0.0000939264117150  0.2500078932554430
  0.9999998545428426  0.9999683470633514  0.7500811498107396
  0.9998888426354426  0.5000549543707749  0.2499958396135540
  0.9999485418972611  0.5002535393998215  0.7501965470925782
  0.5002578840367775  0.9992750409852533  0.2499391180384265
  0.5010664777921505  0.0003181216359067  0.7493393501207635
  0.5003034346014346  0.4991335501907699  0.2504072064647858
  0.5000706809960036  0.5002216151898651  0.7500299137535222
  0.0000665497081158  0.0000050467643362  0.0000633878437526
  0.9999021843032239  0.9998051655201650  0.5001097616487868
  0.9999996649511971  0.5001472878317728  0.0000541472068178
  0.9998618302689053  0.4998654628160324  0.4999933564214487
  0.5001316229406783  0.0003074982233926  0.9996411130495346
  0.5008102546770203  0.0001462139252695  0.4994943030662071
  0.5000448397195001  0.5002377979475554  0.0001828713839629
  0.5008711791995069  0.5020627750300193  0.4999062169770951
  0.2502518958441939  0.0002513028770110  0.2502510438624910
  0.2499537387393218  0.0000299795234113  0.7500242072521743
  0.2500296913284998  0.5000244499814528  0.2499533808033476
  0.2501289104472164  0.4990772605141913  0.7487909163142845
  0.7500250632349932  0.9999533733832919  0.2500291492238489
  0.7487918009448364  0.0001289292969844  0.7490763841317900
  0.7490762061959799  0.4987912310397178  0.2501284410427473
  0.7501605127118509  0.5001596884450379  0.7501596211679384
  0.9996417493185490  0.2501314839120994  0.2503073942894574
  0.0001834906096363  0.2500448299910545  0.7502374149562527
  0.0000642182781974  0.7500661063002738  0.2500045582543748
  0.0000547121296961  0.7499999893344906  0.7501468529270383
  0.4994949636113333  0.2508111530436707  0.2501458108315191
  0.4999064187929676  0.2508715023395425  0.7520616151599526
  0.5001101755268493  0.7499021646136157  0.2498047834050539
  0.4999941816325730  0.7498616123192221  0.7498650125236992
  0.2498053053694491  0.2501103391013331  0.9999014699441702
  0.2501467120412499  0.2494950660826021  0.5008106151992493
  0.2500050490428691  0.7500638743886299  0.0000656411762563
  0.2503079217226798  0.7496415288034157  0.5001310665898870
  0.7498653647229290  0.2499940551778366  0.9998612231310844
  0.7520622547166695  0.2499069084304750  0.5008704021239083
  0.7501475161804905  0.7500545368161511  0.9999991415878497
  0.7502384425628819  0.7501831352362274  0.5000443459029213
  0.1086334852465214  0.1087126610382612  0.1087716320662722
  0.1079553628298342  0.1085377833530359  0.6088976526769372
  0.1087333943634263  0.6087266024155156  0.1087048891560443
  0.1086433299901728  0.6085899676314028  0.6086460088326220
  0.6087243637439670  0.1088065715916215  0.1082777708892095
  0.6066386277073335  0.1124869116787863  0.6075244034171448
  0.6087569614970718  0.6085711025724123  0.1086882911530083
  0.6092085907694269  0.6084831827545472  0.6089319020289707
  0.3590022917408149  0.1089995630343452  0.3590005773295957
  0.3585668827833075  0.1086215182165802  0.8584439028441651
  0.3586237579902090  0.6084431625545221  0.3585650883895894
  0.3586327848760078  0.6086589425258424  0.8587032423869090
  0.8584459518068570  0.1085643915816448  0.3586217846426010
  0.8587052926971452  0.1086301413610684  0.8586597870752755
  0.8586608741251354  0.6087032656913820  0.3586309120985547
  0.8587778950786955  0.6087752743442110  0.8587763253476908
  0.1082803663157392  0.3587214796682758  0.3588077958738083
  0.1086900817108258  0.3587547044343040  0.8585718963678417
  0.1087734607532056  0.8586306461150670  0.3587136254646239
  0.1087067016816547  0.8587306046873522  0.8587274585668609
  0.6075263122101831  0.3566359197009561  0.3624881599688052
  0.6089337768213170  0.3592057578910755  0.8584838819594935
  0.6088993162872924  0.8579529350356410  0.3585385647817816
  0.6086474053431630  0.8586404613297205  0.8585910710838363
  0.3585394980964409  0.3588966682944275  0.1079536431054180
  0.3624897461258882  0.3575226021555267  0.6066357337299095
  0.3587149686424169  0.8587703951345773  0.1086316154322020
  0.3588091060563272  0.8582772109169028  0.6087223767147165
  0.8585921745713208  0.3586450668056997  0.1086414661628510
  0.8584859147424950  0.3589309482852627  0.6092065264530362
  0.8587289908288795  0.8587039321714585  0.1087315630992265
  0.8585737759513492  0.8586876084861217  0.6087550428967390
  0.3584813020328710  0.3585955507744245  0.3580820994398835
  0.3587634447345494  0.3587146609606151  0.8580836063565584
  0.3587661215939235  0.8585527429083086  0.3587869545553488
  0.3588419569219425  0.8586133296838128  0.8587640680592514
  0.8576672262624072  0.3590168915126455  0.3585043446776623
  0.8589380877619206  0.3587071669668163  0.8587861226611082
  0.8587250717359112  0.8587506959132583  0.3587247027993783
  0.8587346692686069  0.8588498342867581  0.8586336667621168
  0.1084228899728927  0.3588139876958323  0.1085831110746796
  0.1084733220940990  0.3590775022683275  0.6089323503168984
  0.1087155999219220  0.8587132173009167  0.1087159871299832
  0.1085830674631154  0.8584210655273097  0.6088163397348012
  0.6090796557159095  0.3589299486808741  0.1084732264641701
  0.6086497201749879  0.3586481596593885  0.6086496636674639
  0.6088161788619146  0.8585806996963612  0.1084232862069214
  0.6089319529245003  0.8584706558926882  0.6090801359460158
  0.3587858580726078  0.1087636152127374  0.1085553875995444
  0.3580820946297578  0.1084799232376241  0.6085978788122119
  0.3587241025794299  0.6087229988800544  0.1087530234014338
  0.3585037247654483  0.6076651641701716  0.6090194256473751
  0.8587634864760147  0.1088399511975240  0.1086154744414856
  0.8580838004136453  0.1087614448511118  0.6087166347073136
  0.8586328831546979  0.6087325941510286  0.1088522315736853
  0.8587856334438158  0.6089365683939789  0.6087100131823320
  0.1085557343795713  0.1087839503874548  0.3587661784207086
  0.1087527253499587  0.1087228134158593  0.8587253429268458
  0.1086150105140078  0.6087617782035437  0.3588424742286662
  0.1088518825588878  0.6086312970616774  0.8587349274177782
  0.6085980905976740  0.1080794368063991  0.3584808277261402
  0.6090189889497424  0.1085018590827715  0.8576674774607653
  0.6087168717780855  0.6080818903701939  0.3587635421113262
  0.6087097765800138  0.6087838254581683  0.8589383573834795
  0.3146596253608038  0.2268653750439427  0.3795972599689179
  0.3144642454068318  0.2265317266493341  0.8792078507515413
  0.3143948015775990  0.7265411193249349  0.3791937069364479
  0.3143378225136004  0.7264004884033994  0.8794820547539359
  0.8148389960853279  0.2262962910071522  0.3798417337731337
  0.8145366867638231  0.2265136157192629  0.8794430537767468
  0.8144802231961776  0.7264675573205395  0.3795267566313001
  0.8145338679254763  0.7265689814579019  0.8795058908263158
  0.0643634199533452  0.2264885882624696  0.1295726847993208
  0.0646124341489269  0.2266577191252850  0.6296364260051206
  0.0644651340215177  0.7265405602984529  0.1294899854621434
  0.0643120179725543  0.7264900912618870  0.6294864774953552
  0.5646437905856558  0.2266128197057924  0.1295274470792904
  0.5665307773313870  0.2281367272475947  0.6349150697969534
  0.5643934741031131  0.7263785676316203  0.1293420104117544
  0.5640660240461699  0.7261584352373305  0.6293844593959577
  0.3142902426417677  0.4766534271888645  0.1291179350792859
  0.3147706140444981  0.4759245567338937  0.6283809980963042
  0.3144841437629182  0.9765500346701543  0.1295974675300755
  0.3142962091501715  0.9760301816119465  0.6296953041128504
  0.8144265469767191  0.4764908170693758  0.1294747516950565
  0.8147480587734464  0.4768640869615766  0.6298153067760239
  0.8145897268441047  0.9765168464872289  0.1295205509629227
  0.8144992746571020  0.9765136117407138  0.6295223921578952
  0.0642088571318880  0.4766428401116656  0.3794257362476259
  0.0645146924092259  0.4765477856913165  0.8795845636050927
  0.0647048719938326  0.9764851032336423  0.3796048692609304
  0.0644241769103502  0.9764758380193683  0.8795883445341062
  0.5649747718218094  0.4762157382313745  0.3800639099490013
  0.5644614120573408  0.4768279657269687  0.8800099522952110
  0.5641635149407591  0.9756296573778869  0.3781818254661786
  0.5644178929837835  0.9763391119633980  0.8794081908984950
  0.3781822303727935  0.3141672515425569  0.2256293752878022
  0.3800640001426956  0.3149761443769492  0.7262154377276389
  0.3796050839872578  0.8147060681395430  0.2264849031157468
  0.3794261054662940  0.8142101430755773  0.7266428199171955
  0.8794084687808450  0.3144190501924484  0.2263388068740539
  0.8800105926188309  0.3144622116457327  0.7268278098285137
  0.8795885871845215  0.8144254205275772  0.2264757156042805
  0.8795848314233154  0.8145175844513233  0.7265476176066699
  0.1295302799785958  0.3146453427706888  0.4766125804819978
  0.1293423941439826  0.3143947819103730  0.9763785614287670
  0.1295732842602462  0.8143643925450377  0.4764886085017892
  0.1294905418471188  0.8144664570840732  0.9765404351508806
  0.6349149620771968  0.3165308866116092  0.4781369823444876
  0.6293845696790257  0.3140671280383174  0.9761578582225354
  0.6296368728602175  0.8146139268175290  0.4766576879094941
  0.6294868372804672  0.8143130797081355  0.9764898849227208
  0.3795976354547150  0.0646601642481741  0.4768652191320015
  0.3791941599896163  0.0643960805171062  0.9765411796682031
  0.3798420954087618  0.5648402475898067  0.4762963644170100
  0.3795277211609331  0.5644820772638752  0.9764668301009749
  0.8792086435353426  0.0644648436170954  0.4765313604165939
  0.8794829371214590  0.0643391382738585  0.9764002680408481
  0.8794438645520728  0.5645389553915550  0.4765135863986742
  0.8795066668746685  0.5645345013889482  0.9765688156156216
  0.1295978250776884  0.0644873999260298  0.2265501400912200
  0.1291180128763543  0.0642913150607214  0.7266532055852437
  0.1295217111970288  0.5645913118365513  0.2265165698321212
  0.1294755766207061  0.5644277115999188  0.7264907783130141
  0.6296953824043570  0.0642972319631738  0.2260301636674740
  0.6283816234042376  0.0647713402803589  0.7259237257659521
  0.6295229228063235  0.5645003781945377  0.2265131059979808
  0.6298158298842012  0.5647490696356101  0.7268639263966818
  0.2260293280786101  0.3796969030141852  0.3142976088928293
  0.2265125358199853  0.3795242381327313  0.8145007795582657
  0.2265497015881976  0.8795987738425382  0.3144880451832108
  0.2265162024316609  0.8795227932175891  0.8145915815749873
  0.7259233915100509  0.3783821326491505  0.3147724154729588
  0.7268636767559400  0.3798167647184272  0.8147489827692524
  0.7266521004605195  0.8791212035324705  0.3142927830629603
  0.7264903291976523  0.8794768488989675  0.8144286252911641
  0.4766567289607337  0.3796380904510457  0.0646145626672379
  0.4781369243334836  0.3849178413817853  0.5665329332586921
  0.4764880324441876  0.8795731814119279  0.0643647713500783
  0.4766124660737106  0.8795311225084390  0.5646456845152770
  0.9764895789076249  0.3794874748458952  0.0643134571942170
  0.9761576516412589  0.3793859213789403  0.5640670552031537
  0.9765405617197231  0.8794912207307561  0.0644670799389218
  0.9763786051662606  0.8793434950384693  0.5643948873890423
  0.2264843360579434  0.1296065412699647  0.0647065374959368
  0.2256287496130724  0.1281834218766633  0.5641676657065631
  0.2264752289937988  0.6295894508278153  0.0644252905524922
  0.2263382401543197  0.6294096275507357  0.5644193403432922
  0.7266421116523460  0.1294270899128165  0.0642102041532127
  0.7262153661002699  0.1300651261050376  0.5649755398130694
  0.7265467422701377  0.6295854900337261  0.0645170092039677
  0.7268276279728170  0.6300114694361270  0.5644627880029631
  0.4768651055790301  0.1295988527520677  0.3146603667557883
  0.4762964361410837  0.1298430952562413  0.8148403494757375
  0.4765311583718557  0.6292095435103775  0.3144667081626551
  0.4765132584153378  0.6294445450954527  0.8145381376822272
  0.9765409532170324  0.1291947685034671  0.3143965118427658
  0.9764667287693172  0.1295290166521141  0.8144823217049222
  0.9763997371035771  0.6294833891090477  0.3143390911296748
  0.9765686390786854  0.6295074873489099  0.8145346122035662
  0.3149673925234140  0.1295508035798960  0.2266428073928139
  0.3137703991125278  0.1281121709528534  0.7272551566943903
  0.3141934724576032  0.6299224799357148  0.2262852339620238
  0.3141266342861542  0.6290706185169768  0.7266397682198829
  0.8147208829602022  0.1299969088126005  0.2262197200206089
  0.8143582366041500  0.1295821036401037  0.7265753308441703
  0.8143784003885415  0.6297407029264477  0.2265225931536605
  0.8146291955232741  0.6296264787500547  0.7265847504967908
  0.0641270673406922  0.1296711189899185  0.4764212933534040
  0.0644652468952458  0.1295276824458185  0.9765214377213809
  0.0641125380239345  0.6298743857647651  0.4764440161375347
  0.0644733309611070  0.6295365702080105  0.9764854695839418
  0.5682098541793721  0.1215927575564848  0.4774384876537923
  0.5647617126641293  0.1289730767698458  0.9761355799268330
  0.5645219128363976  0.6291356451408845  0.4765777591866183
  0.5643094579420378  0.6297534836825847  0.9766185575349979
  0.3159063204994865  0.3798333655092492  0.4763795205316654
  0.3145014633397096  0.3794001064702854  0.9761747488961561
  0.3144742628426727  0.8793662725255373  0.4766055623264904
  0.3143708143790391  0.8794092946072425  0.9765672691139073
  0.8151966791349139  0.3798705454329081  0.4766456081657466
  0.8145476265214739  0.3796419983935095  0.9764474006502084
  0.8143381418412545  0.8795390456014474  0.4764992610235765
  0.8145152389936072  0.8795360219139710  0.9764625569386851
  0.0644770921806241  0.3796601231991588  0.2263635110347835
  0.0637823836230638  0.3798567462944646  0.7268399706502464
  0.0645157619045378  0.8795172654149539  0.2265193874232523
  0.0643824990613737  0.8794037653715208  0.7266125130799352
  0.5668062363575004  0.3806249742038759  0.2254691500288288
  0.5654189361752486  0.3805501792470665  0.7271691244441243
  0.5644048560564983  0.8788645864584410  0.2262786851435337
  0.5640555228030237  0.8787739054774093  0.7270557507936957
  0.2262782538507011  0.3144042493781853  0.1288652283381495
  0.2254684872190396  0.3168059946000668  0.6306254770696071
  0.2265189183460379  0.8145142475327205  0.1295179366418751
  0.2263631941839606  0.8144770164688921  0.6296608675722126
  0.7270554198889627  0.3140551999759680  0.1287743202771452
  0.7271690537728901  0.3154183317003785  0.6305504382699709
  0.7266130988452346  0.8143822905867282  0.1294054153591091
  0.7268396442182947  0.8137826691397692  0.6298573573156503
  0.4774390030660172  0.3182093170003668  0.3715935623702293
  0.4765779156286598  0.3145211259474578  0.8791358355131891
  0.4764212209871630  0.8141252995041768  0.3796728179433231
  0.4764433050401209  0.8141125485437826  0.8798751488193233
  0.9761354365128909  0.3147605368663093  0.3789746922895674
  0.9766185506283023  0.3143092853732981  0.8797538132109608
  0.9765212921671989  0.8144646493565091  0.3795284352200383
  0.9764854694458975  0.8144730568704333  0.8795369837497020
  0.2266426526317815  0.0649665785558540  0.3795514739851455
  0.2262850473418396  0.0641934915320519  0.8799230475667130
  0.2262184769043500  0.5647204829791690  0.3799990235015471
  0.2265223721015914  0.5643779373045419  0.8797411258914991
  0.7272544726736143  0.0637692240984364  0.3781128681039405
  0.7266397498764476  0.0641265968116826  0.8790706300055859
  0.7265757252517275  0.5643569966434967  0.3795825390495082
  0.7265846282545851  0.5646288205186423  0.8796270245466786
  0.4766051202777319  0.0644739769497065  0.1293665664021901
  0.4763799068074803  0.0659059621491025  0.6298334116502247
  0.4764992487814723  0.5643377480207619  0.1295391116199269
  0.4766454626087224  0.5651965015644791  0.6298712093660868
  0.9765672514516979  0.0643709069278486  0.1294099322475759
  0.9761749180631227  0.0645011712678993  0.6293999918336510
  0.9764621523689812  0.5645133769514530  0.1295370757732286
  0.9764474177142475  0.5645473354982968  0.6296426600132534
  0.1293663799862657  0.2266053940240838  0.3144739086892798
  0.1295386521384643  0.2264995873904638  0.8143376949298329
  0.1294091338889132  0.7265675104175884  0.3143707751397926
  0.1295366418055934  0.7264622902468645  0.8145132955238310
  0.6298331222602016  0.2263791805284541  0.3159056827962203
  0.6298705828264772  0.2266458063861450  0.8151959377980234
  0.6294000854305040  0.7261752276569311  0.3145011127963926
  0.6296419367006649  0.7264478919769530  0.8145471413556606
  0.3796719802857282  0.2264213692442070  0.0641255997738739
  0.3715934470461875  0.2274385346521157  0.5682091612070934
  0.3795278032590517  0.7265212551290361  0.0644646402442532
  0.3789731275480079  0.7261361766615124  0.5647612493183161
  0.8798738486183879  0.2264441395468211  0.0641122226333053
  0.8791354692455258  0.2265781996449832  0.5645209421921678
  0.8795361674550080  0.7264857324191567  0.0644727402942635
  0.8797535599311175  0.7266189213216876  0.5643097555063932
  0.1294035731108849  0.4766127511627403  0.0643818354537231
  0.1287738841059038  0.4770560953062386  0.5640550949196452
  0.1295171431182212  0.9765194606298238  0.0645154360416953
  0.1288646266873954  0.9762787404373015  0.5644041161461359
  0.6298565216160910  0.4768398634412279  0.0637817504352185
  0.6305502813125159  0.4771695653843793  0.5654179501491612
  0.6296601674222586  0.9763635649935409  0.0644769270070498
  0.6306254247004190  0.9754697137190149  0.5668056041595761
  0.3781122107467709  0.4772556121444396  0.3137691284398869
  0.3795821096331053  0.4765761719555783  0.8143564455847638
  0.3795513775894079  0.9766423913517102  0.3149673306478107
  0.3799969843079012  0.9762199080208660  0.8147207296812198
  0.8790689250969024  0.4766403705704434  0.3141263342136682
  0.8796261233766884  0.4765849288646393  0.8146285576888985
  0.8799227390794613  0.9762856694561535  0.3141928050837350
  0.8797407257334058  0.9765231092724918  0.8143779441918753
 
  0.00000000E+00  0.00000000E+00  0.00000000E+00
  0.00000000E+00  0.00000000E+00  0.00000000E+00
  0.00000000E+00  0.00000000E+00  0.00000000E+00
  0.00000000E+00  0.00000000E+00  0.00000000E+00
  0.00000000E+00  0.00000000E+00  0.00000000E+00
  0.00000000E+00  0.00000000E+00  0.00000000E+00
  0.00000000E+00  0.00000000E+00  0.00000000E+00
  0.00000000E+00  0.00000000E+00  0.00000000E+00
  0.00000000E+00  0.00000000E+00  0.00000000E+00
  0.00000000E+00  0.00000000E+00  0.00000000E+00
  0.00000000E+00  0.00000000E+00  0.00000000E+00
  0.00000000E+00  0.00000000E+00  0.00000000E+00
  0.00000000E+00  0.00000000E+00  0.00000000E+00
  0.00000000E+00  0.00000000E+00  0.00000000E+00
  0.00000000E+00  0.00000000E+00  0.00000000E+00
  0.00000000E+00  0.00000000E+00  0.00000000E+00
  0.00000000E+00  0.00000000E+00  0.00000000E+00
  0.00000000E+00  0.00000000E+00  0.00000000E+00
  0.00000000E+00  0.00000000E+00  0.00000000E+00
  0.00000000E+00  0.00000000E+00  0.00000000E+00
  0.00000000E+00  0.00000000E+00  0.00000000E+00
  0.00000000E+00  0.00000000E+00  0.00000000E+00
  0.00000000E+00  0.00000000E+00  0.00000000E+00
  0.00000000E+00  0.00000000E+00  0.00000000E+00
  0.00000000E+00  0.00000000E+00  0.00000000E+00
  0.00000000E+00  0.00000000E+00  0.00000000E+00
  0.00000000E+00  0.00000000E+00  0.00000000E+00
  0.00000000E+00  0.00000000E+00  0.00000000E+00
  0.00000000E+00  0.00000000E+00  0.00000000E+00
  0.00000000E+00  0.00000000E+00  0.00000000E+00
  0.00000000E+00  0.00000000E+00  0.00000000E+00
  0.00000000E+00  0.00000000E+00  0.00000000E+00
  0.00000000E+00  0.00000000E+00  0.00000000E+00
  0.00000000E+00  0.00000000E+00  0.00000000E+00
  0.00000000E+00  0.00000000E+00  0.00000000E+00
  0.00000000E+00  0.00000000E+00  0.00000000E+00
  0.00000000E+00  0.00000000E+00  0.00000000E+00
  0.00000000E+00  0.00000000E+00  0.00000000E+00
  0.00000000E+00  0.00000000E+00  0.00000000E+00
  0.00000000E+00  0.00000000E+00  0.00000000E+00
  0.00000000E+00  0.00000000E+00  0.00000000E+00
  0.00000000E+00  0.00000000E+00  0.00000000E+00
  0.00000000E+00  0.00000000E+00  0.00000000E+00
  0.00000000E+00  0.00000000E+00  0.00000000E+00
  0.00000000E+00  0.00000000E+00  0.00000000E+00
  0.00000000E+00  0.00000000E+00  0.00000000E+00
  0.00000000E+00  0.00000000E+00  0.00000000E+00
  0.00000000E+00  0.00000000E+00  0.00000000E+00
  0.00000000E+00  0.00000000E+00  0.00000000E+00
  0.00000000E+00  0.00000000E+00  0.00000000E+00
  0.00000000E+00  0.00000000E+00  0.00000000E+00
  0.00000000E+00  0.00000000E+00  0.00000000E+00
  0.00000000E+00  0.00000000E+00  0.00000000E+00
  0.00000000E+00  0.00000000E+00  0.00000000E+00
  0.00000000E+00  0.00000000E+00  0.00000000E+00
  0.00000000E+00  0.00000000E+00  0.00000000E+00
  0.00000000E+00  0.00000000E+00  0.00000000E+00
  0.00000000E+00  0.00000000E+00  0.00000000E+00
  0.00000000E+00  0.00000000E+00  0.00000000E+00
  0.00000000E+00  0.00000000E+00  0.00000000E+00
  0.00000000E+00  0.00000000E+00  0.00000000E+00
  0.00000000E+00  0.00000000E+00  0.00000000E+00
  0.00000000E+00  0.00000000E+00  0.00000000E+00
  0.00000000E+00  0.00000000E+00  0.00000000E+00
  0.00000000E+00  0.00000000E+00  0.00000000E+00
  0.00000000E+00  0.00000000E+00  0.00000000E+00
  0.00000000E+00  0.00000000E+00  0.00000000E+00
  0.00000000E+00  0.00000000E+00  0.00000000E+00
  0.00000000E+00  0.00000000E+00  0.00000000E+00
  0.00000000E+00  0.00000000E+00  0.00000000E+00
  0.00000000E+00  0.00000000E+00  0.00000000E+00
  0.00000000E+00  0.00000000E+00  0.00000000E+00
  0.00000000E+00  0.00000000E+00  0.00000000E+00
  0.00000000E+00  0.00000000E+00  0.00000000E+00
  0.00000000E+00  0.00000000E+00  0.00000000E+00
  0.00000000E+00  0.00000000E+00  0.00000000E+00
  0.00000000E+00  0.00000000E+00  0.00000000E+00
  0.00000000E+00  0.00000000E+00  0.00000000E+00
  0.00000000E+00  0.00000000E+00  0.00000000E+00
  0.00000000E+00  0.00000000E+00  0.00000000E+00
  0.00000000E+00  0.00000000E+00  0.00000000E+00
  0.00000000E+00  0.00000000E+00  0.00000000E+00
  0.00000000E+00  0.00000000E+00  0.00000000E+00
  0.00000000E+00  0.00000000E+00  0.00000000E+00
  0.00000000E+00  0.00000000E+00  0.00000000E+00
  0.00000000E+00  0.00000000E+00  0.00000000E+00
  0.00000000E+00  0.00000000E+00  0.00000000E+00
  0.00000000E+00  0.00000000E+00  0.00000000E+00
  0.00000000E+00  0.00000000E+00  0.00000000E+00
  0.00000000E+00  0.00000000E+00  0.00000000E+00
  0.00000000E+00  0.00000000E+00  0.00000000E+00
  0.00000000E+00  0.00000000E+00  0.00000000E+00
  0.00000000E+00  0.00000000E+00  0.00000000E+00
  0.00000000E+00  0.00000000E+00  0.00000000E+00
  0.00000000E+00  0.00000000E+00  0.00000000E+00
  0.00000000E+00  0.00000000E+00  0.00000000E+00
  0.00000000E+00  0.00000000E+00  0.00000000E+00
  0.00000000E+00  0.00000000E+00  0.00000000E+00
  0.00000000E+00  0.00000000E+00  0.00000000E+00
  0.00000000E+00  0.00000000E+00  0.00000000E+00
  0.00000000E+00  0.00000000E+00  0.00000000E+00
  0.00000000E+00  0.00000000E+00  0.00000000E+00
  0.00000000E+00  0.00000000E+00  0.00000000E+00
  0.00000000E+00  0.00000000E+00  0.00000000E+00
  0.00000000E+00  0.00000000E+00  0.00000000E+00
  0.00000000E+00  0.00000000E+00  0.00000000E+00
  0.00000000E+00  0.00000000E+00  0.00000000E+00
  0.00000000E+00  0.00000000E+00  0.00000000E+00
  0.00000000E+00  0.00000000E+00  0.00000000E+00
  0.00000000E+00  0.00000000E+00  0.00000000E+00
  0.00000000E+00  0.00000000E+00  0.00000000E+00
  0.00000000E+00  0.00000000E+00  0.00000000E+00
  0.00000000E+00  0.00000000E+00  0.00000000E+00
  0.00000000E+00  0.00000000E+00  0.00000000E+00
  0.00000000E+00  0.00000000E+00  0.00000000E+00
  0.00000000E+00  0.00000000E+00  0.00000000E+00
  0.00000000E+00  0.00000000E+00  0.00000000E+00
  0.00000000E+00  0.00000000E+00  0.00000000E+00
  0.00000000E+00  0.00000000E+00  0.00000000E+00
  0.00000000E+00  0.00000000E+00  0.00000000E+00
  0.00000000E+00  0.00000000E+00  0.00000000E+00
  0.00000000E+00  0.00000000E+00  0.00000000E+00
  0.00000000E+00  0.00000000E+00  0.00000000E+00
  0.00000000E+00  0.00000000E+00  0.00000000E+00
  0.00000000E+00  0.00000000E+00  0.00000000E+00
  0.00000000E+00  0.00000000E+00  0.00000000E+00
  0.00000000E+00  0.00000000E+00  0.00000000E+00
  0.00000000E+00  0.00000000E+00  0.00000000E+00
  0.00000000E+00  0.00000000E+00  0.00000000E+00
  0.00000000E+00  0.00000000E+00  0.00000000E+00
  0.00000000E+00  0.00000000E+00  0.00000000E+00
  0.00000000E+00  0.00000000E+00  0.00000000E+00
  0.00000000E+00  0.00000000E+00  0.00000000E+00
  0.00000000E+00  0.00000000E+00  0.00000000E+00
  0.00000000E+00  0.00000000E+00  0.00000000E+00
  0.00000000E+00  0.00000000E+00  0.00000000E+00
  0.00000000E+00  0.00000000E+00  0.00000000E+00
  0.00000000E+00  0.00000000E+00  0.00000000E+00
  0.00000000E+00  0.00000000E+00  0.00000000E+00
  0.00000000E+00  0.00000000E+00  0.00000000E+00
  0.00000000E+00  0.00000000E+00  0.00000000E+00
  0.00000000E+00  0.00000000E+00  0.00000000E+00
  0.00000000E+00  0.00000000E+00  0.00000000E+00
  0.00000000E+00  0.00000000E+00  0.00000000E+00
  0.00000000E+00  0.00000000E+00  0.00000000E+00
  0.00000000E+00  0.00000000E+00  0.00000000E+00
  0.00000000E+00  0.00000000E+00  0.00000000E+00
  0.00000000E+00  0.00000000E+00  0.00000000E+00
  0.00000000E+00  0.00000000E+00  0.00000000E+00
  0.00000000E+00  0.00000000E+00  0.00000000E+00
  0.00000000E+00  0.00000000E+00  0.00000000E+00
  0.00000000E+00  0.00000000E+00  0.00000000E+00
  0.00000000E+00  0.00000000E+00  0.00000000E+00
  0.00000000E+00  0.00000000E+00  0.00000000E+00
  0.00000000E+00  0.00000000E+00  0.00000000E+00
  0.00000000E+00  0.00000000E+00  0.00000000E+00
  0.00000000E+00  0.00000000E+00  0.00000000E+00
  0.00000000E+00  0.00000000E+00  0.00000000E+00
  0.00000000E+00  0.00000000E+00  0.00000000E+00
  0.00000000E+00  0.00000000E+00  0.00000000E+00
  0.00000000E+00  0.00000000E+00  0.00000000E+00
  0.00000000E+00  0.00000000E+00  0.00000000E+00
  0.00000000E+00  0.00000000E+00  0.00000000E+00
  0.00000000E+00  0.00000000E+00  0.00000000E+00
  0.00000000E+00  0.00000000E+00  0.00000000E+00
  0.00000000E+00  0.00000000E+00  0.00000000E+00
  0.00000000E+00  0.00000000E+00  0.00000000E+00
  0.00000000E+00  0.00000000E+00  0.00000000E+00
  0.00000000E+00  0.00000000E+00  0.00000000E+00
  0.00000000E+00  0.00000000E+00  0.00000000E+00
  0.00000000E+00  0.00000000E+00  0.00000000E+00
  0.00000000E+00  0.00000000E+00  0.00000000E+00
  0.00000000E+00  0.00000000E+00  0.00000000E+00
  0.00000000E+00  0.00000000E+00  0.00000000E+00
  0.00000000E+00  0.00000000E+00  0.00000000E+00
  0.00000000E+00  0.00000000E+00  0.00000000E+00
  0.00000000E+00  0.00000000E+00  0.00000000E+00
  0.00000000E+00  0.00000000E+00  0.00000000E+00
  0.00000000E+00  0.00000000E+00  0.00000000E+00
  0.00000000E+00  0.00000000E+00  0.00000000E+00
  0.00000000E+00  0.00000000E+00  0.00000000E+00
  0.00000000E+00  0.00000000E+00  0.00000000E+00
  0.00000000E+00  0.00000000E+00  0.00000000E+00
  0.00000000E+00  0.00000000E+00  0.00000000E+00
  0.00000000E+00  0.00000000E+00  0.00000000E+00
  0.00000000E+00  0.00000000E+00  0.00000000E+00
  0.00000000E+00  0.00000000E+00  0.00000000E+00
  0.00000000E+00  0.00000000E+00  0.00000000E+00
  0.00000000E+00  0.00000000E+00  0.00000000E+00
  0.00000000E+00  0.00000000E+00  0.00000000E+00
  0.00000000E+00  0.00000000E+00  0.00000000E+00
  0.00000000E+00  0.00000000E+00  0.00000000E+00
  0.00000000E+00  0.00000000E+00  0.00000000E+00
  0.00000000E+00  0.00000000E+00  0.00000000E+00
  0.00000000E+00  0.00000000E+00  0.00000000E+00
  0.00000000E+00  0.00000000E+00  0.00000000E+00
  0.00000000E+00  0.00000000E+00  0.00000000E+00
  0.00000000E+00  0.00000000E+00  0.00000000E+00
  0.00000000E+00  0.00000000E+00  0.00000000E+00
  0.00000000E+00  0.00000000E+00  0.00000000E+00
  0.00000000E+00  0.00000000E+00  0.00000000E+00
  0.00000000E+00  0.00000000E+00  0.00000000E+00
  0.00000000E+00  0.00000000E+00  0.00000000E+00
  0.00000000E+00  0.00000000E+00  0.00000000E+00
  0.00000000E+00  0.00000000E+00  0.00000000E+00
  0.00000000E+00  0.00000000E+00  0.00000000E+00
  0.00000000E+00  0.00000000E+00  0.00000000E+00
  0.00000000E+00  0.00000000E+00  0.00000000E+00