Li95 Nb33 O128                          
   1.00000000000000     
    13.7806110000000004   -0.0000030000000000   -4.8721819999999996
    -6.8903090000000002   11.9343559999999993   -4.8721850000000000
     0.0000000000000000   -0.0000040000000000   14.6165459999999996
   Li   Nb   O 
    95    33   128
Direct
  0.0001930595426529  0.1359013775869116  0.2578343553665192
  0.0009996376042309  0.1373782810031940  0.7579491180216280
  0.9990003237476657  0.6363788122939127  0.2569495658050656
  0.9998068979468826  0.6357085076048534  0.7576410466688799
  0.4999999325693594  0.1427627310516897  0.7610411627225275
  0.5000000905643347  0.6354262066661462  0.2553568297553070
  0.4999999445612602  0.6342062785142843  0.7576042104939589
  0.3627599129901569  0.3648340849525837  0.1198385778080890
  0.3600798039821953  0.3635888955024669  0.6231832262419559
  0.3578860807963267  0.8569060721274795  0.1170701033599713
  0.3590207863155896  0.8598223086833912  0.6190520508967836
  0.8681361667590863  0.3686814017847126  0.1213682097634248
  0.8682416657761820  0.3665308645213372  0.6221068668241401
  0.8636256646935863  0.8628581691556008  0.1213948763435369
  0.8668918592755332  0.8657841942770759  0.6213851856672932
  0.1317583054680327  0.9982891391717033  0.2538649520866372
  0.1318634467152435  0.0005449089565630  0.7532320765453306
  0.1331076764911572  0.4988918536161435  0.2544932322801614
  0.1363747521896030  0.4992327802357650  0.7577696060216752
  0.6421136846466453  0.9990191826996195  0.2591835487182621
  0.6409792758202855  0.0008012308603824  0.7600311627233580
  0.6372399840931635  0.5020741270763338  0.2570786162362424
  0.6399202763097733  0.5035089107473851  0.7631035281158276
  0.9998651521730437  0.2581727544944457  0.1355565317679535
  0.0014282716445777  0.2582837187613620  0.6373947370415536
  0.9985716986660194  0.7568552269937570  0.1359663906427926
  0.0001345948291345  0.7583075113160831  0.6356912251606701
  0.5000000392213053  0.2636663545126510  0.1340066082006004
  0.4999990735233411  0.2583801885831107  0.6393196006399933
  0.5000001718063558  0.7531448601835891  0.1360757414616174
  0.5000000329428786  0.7538408478084833  0.6396406347202586
  0.1361188830229665  0.2578976795043175  0.9991228807849026
  0.1360827316388580  0.2560035219844892  0.4991071193996603
  0.1311932868201282  0.7535348248985301  0.9988728721745588
  0.1338556675195193  0.7556043813917839  0.4984082852556142
  0.6387371461172293  0.2631469001679676  0.0001952036351227
  0.6468706470879440  0.2654518955216147  0.5115934796537331
  0.6392577977489324  0.7556281188527976  0.0007779760855371
  0.6413778145638247  0.7594905344190366  0.4998837805514498
  0.3531292780451523  0.1185813872861488  0.3647224091163608
  0.3612628617025919  0.1244098395336692  0.8614578777185358
  0.3586220212848872  0.6181128870924582  0.3585063085926663
  0.3607425485115812  0.6163706464126051  0.8615203148284820
  0.8688067513255930  0.1223420085450613  0.3676795233705761
  0.8661443962336008  0.1217484038589660  0.8645523082815529
  0.8638812375584877  0.6217789980791082  0.3630040903965153
  0.8639170007367056  0.6199204683240183  0.8630239586404400
  0.1186210439111761  0.3614582045732178  0.3610266756882936
  0.1207595025744865  0.3631714097771024  0.8627163266801503
  0.1193897688620282  0.8622151489967749  0.3619632773857617
  0.1145236612415985  0.8600466571899261  0.8604917696391396
  0.6294095625129614  0.3855419425248812  0.3769885286099495
  0.6223075218920897  0.3676464629397884  0.8667577698697357
  0.6251416270923045  0.8591799206250812  0.3647633574814861
  0.6230796550690911  0.8615516710559348  0.8623145121811930
  0.2535588437806240  0.1401887671069701  0.9979605889206766
  0.2533658681491815  0.1354532135351647  0.4997341579798444
  0.2541781898895081  0.6325892244539091  0.9997087931913740
  0.2531497262271003  0.6339059452256137  0.4993645120765535
  0.7640151418833270  0.1396537798919724  0.9972035569592137
  0.7659748052887707  0.1408282125397591  0.5046687675922996
  0.7576436578589707  0.6366314694693358  0.0005855452147756
  0.7608937558218898  0.6391051998280872  0.4992325058081590
  0.2409357709959963  0.9955097175923200  0.1237094365342699
  0.2536578919420052  0.0006874464647453  0.6351501917341409
  0.2552396903430179  0.4987263250612131  0.1338063508138205
  0.2583468055874931  0.4999613699475418  0.6372740233357064
  0.7615214827460832  0.9980534589841170  0.1390797613808772
  0.7619790947943983  0.0012557242647446  0.6392648115792099
  0.7580242021512333  0.5014624726882673  0.1361310924929668
  0.7602093066360709  0.5012295988667290  0.6373660617570991
  0.3705903436983604  0.2561322339837844  0.2475791193081989
  0.3776929361273247  0.2453391277512083  0.7444502731414815
  0.3748574309512449  0.7340383183622592  0.2396205568048160
  0.3769203367195217  0.7384719828575399  0.7392347550985292
  0.8854766237646885  0.2455229642264101  0.2459680158813953
  0.8806103641140552  0.2428253575882451  0.7425735169177301
  0.8792406487146494  0.7424117408587776  0.2419565356555893
  0.8813789804262768  0.7428370931978208  0.7424055330129207
  0.2397905158455771  0.2410204490027894  0.3771568311994073
  0.2419757110665302  0.2434384433901826  0.8781071815256993
  0.2380212134902209  0.7392769524546452  0.3772866163668738
  0.2384786608857112  0.7365321365698634  0.8775585975052778
  0.7590645150806310  0.2545739456788354  0.3827744795402097
  0.7463419478755497  0.2470292762642927  0.8814926179556792
  0.7447605922469904  0.7434868300868800  0.3785668185916222
  0.7416532013725075  0.7416146513716129  0.8789273061920966
  0.2391061867172937  0.3782115581862584  0.2383387581851650
  0.2423563028792586  0.3789880102294916  0.7429417756827732
  0.2340253799393821  0.8748534985168419  0.2386941526405479
  0.2359848384830698  0.8756388408728242  0.7331883254402882
  0.7464410331539284  0.3866300500260351  0.2444017433849268
  0.7466343128830246  0.3820872933920896  0.7463682650944179
  0.7458220042294457  0.8784109017649868  0.2455301885551506
  0.7468502518162907  0.8807561502958876  0.7462144538435496
  0.4999999894678311  0.1345627397885778  0.2592012777736628
  0.0003760012112224  0.9995345834470726  0.3588030265059601
  0.0003096153472200  0.0002123930573816  0.8591719882265210
  0.9996899230168665  0.4999025239527555  0.3588622478655950
  0.9996242001247069  0.4991588015038886  0.8584273164651535
  0.5000003515607787  0.9852478709209649  0.3671913728109359
  0.4999998669455081  0.0022094386302882  0.8572729203537577
  0.4999998798702592  0.5018804657597613  0.3588199064543076
  0.4999998149530072  0.4999651154030005  0.8594174348292540
  0.0003755483624204  0.3592686015443007  0.9988546623626391
  0.0032432024691857  0.3605279106116086  0.5012577589237637
  0.9967571597907963  0.8572853355242671  0.9980151982753682
  0.9996245457255313  0.8588933547827722  0.4984793338971514
  0.5000000631186055  0.3600597312368734  0.0005947828453259
  0.5000001136257310  0.3675902136991454  0.5098422517694416
  0.5000000755951035  0.8549316457414236  0.0000731207157898
  0.5000000639738218  0.8545381649146080  0.5045901667607566
  0.3537378578484223  0.9914413846988381  0.9875516905757280
  0.3586585672875486  0.0018545699871026  0.5021893206168784
  0.3586388839477195  0.4993966783390391  0.9995326071877031
  0.3555999816731585  0.4984001468092529  0.4962583404992884
  0.8589017504218432  0.0000338298877551  0.0009524958187228
  0.8602414184496183  0.0008371440885853  0.5008052153794793
  0.8596273520628017  0.5012235768703377  0.0003084424814332
  0.8615015578178742  0.5021570446398229  0.5013851638833060
  0.1384982974890150  0.1406554820324857  0.1398838909126852
  0.1403733374990423  0.1415974648744083  0.6406815509403430
  0.1397589798188292  0.6405960211883439  0.1405646208080000
  0.1410982507865342  0.6411321528524709  0.6420507902940997
  0.6462626410387600  0.1377038251005800  0.1338142320319804
  0.6413415725537988  0.1431958682238204  0.6435310151813525
  0.6413611850657688  0.6407578556805120  0.1408938248939151
  0.6443999201033392  0.6428002422695513  0.6406584315905590
  0.9997853414875451  0.3794735752890759  0.2557874681625023
  0.0000831225497393  0.3792526800956608  0.7554303273122045
  0.9999167786114356  0.8791692295492766  0.2553471684361526
  0.0002145092116308  0.8796882915023900  0.7560020633116196
  0.4999997957633013  0.3796974224768661  0.2575407254331026
  0.5000000791727643  0.3794904056369575  0.7558501638238795
  0.5000000319676303  0.8774593708609331  0.2548704670979234
  0.5000001776440470  0.8794593542705016  0.7589363011964281
  0.1208527585422203  0.1201169188761355  0.3760714119237392
  0.1205254999136685  0.1210637405916017  0.8767436617303090
  0.1203142085697451  0.6204195057345316  0.3768658730317398
  0.1204422931191473  0.6206280164219748  0.8770892804367492
  0.6123961156420066  0.1197528480704619  0.3686852627122335
  0.6213797883277721  0.1215934760817632  0.8775347145760009
  0.6212388415829437  0.6217070453567075  0.3776465896878776
  0.6204264696442507  0.6202882877396760  0.8763305002395470
  0.3876041450783063  0.0073565537554217  0.2562891186222984
  0.3786201527947100  0.0002131054506194  0.7561537558707627
  0.3787611854223627  0.5004681938969711  0.2564076439261598
  0.3795736573848600  0.4998621534008549  0.7559040540326905
  0.8795581075655008  0.0001858653994020  0.2566468768991896
  0.8796856667629811  0.0001050209056856  0.7565509881553396
  0.8794744626246072  0.5005381973355725  0.2562177903635359
  0.8791476332359807  0.4992643274918649  0.7552187397651906
  0.0013711929554105  0.2565060078687154  0.3798727179752461
  0.9997500397706531  0.2557589049788263  0.8785197109330412
  0.0002500085347208  0.7560089114416542  0.3787697543025317
  0.9986299496900202  0.7551368311355660  0.8785018006735825
  0.5000000323645111  0.2504089813276025  0.3712931388746057
  0.4999998568353234  0.2565275825678128  0.8800758301095541
  0.4999998744878766  0.7566897433429105  0.3808990509512569
  0.5000000194120773  0.7554938628609804  0.8807238861542785
  0.3800092166529581  0.2557645651252827  0.0012016145531604
  0.3797679799404321  0.2526888691572537  0.4966051414162891
  0.3790527474343861  0.7572777779505770  0.0016178671356997
  0.3783530038351941  0.7527793005216381  0.5009218678738705
  0.8795273842727411  0.2567024360396815  0.9993351658774117
  0.8807218567202924  0.2573034050772804  0.5000020902831466
  0.8775979376412266  0.7551389789722620  0.9991599463019298
  0.8797616980259519  0.7564231938308836  0.4995307436696237
  0.1202383331921908  0.3766618444256764  0.1197692988284444
  0.1224021383220588  0.3775421397653105  0.6215627246166449
  0.1192784824403574  0.8765820263219481  0.1192805630198990
  0.1204726897649095  0.8771752583210741  0.6198078997736829
  0.6199906048291410  0.3757553075122999  0.1211923440183611
  0.6202321178632602  0.3729211213658843  0.6168372671076980
  0.6209472786008519  0.8782250205606559  0.1225650099117672
  0.6216468365270131  0.8744259710049889  0.6225686470859486
  0.3816011224966758  0.1197559544887739  0.1271330539801880
  0.3767064985758495  0.1213398033540329  0.6216846225284485
  0.3765303103800619  0.6200888145890318  0.1206519244246991
  0.3771061067889931  0.6184278507679224  0.6202203535518223
  0.8754791284578261  0.1207995987117130  0.1204132891590035
  0.8769935936163904  0.1211224042568304  0.6208888230296878
  0.8765435116830105  0.6211248787671764  0.1204334493924932
  0.8776285565422910  0.6215332013470700  0.6211730955392483
  0.2560155625909104  0.3790301986320728  0.9997532114838847
  0.2570581381256858  0.3780475096462013  0.4991415816202220
  0.2557504197858051  0.8805467502403559  0.9997357916459890
  0.2577665776474873  0.8790226828886105  0.5000724490343629
  0.7565270735055805  0.3803048688798611  0.0001371903721292
  0.7564950634237988  0.3799903951815438  0.4992764413385515
  0.7548928062402425  0.8793196057621486  0.0000356453340942
  0.7566541072595143  0.8798286990089110  0.5002511091543624
  0.2569866602751247  0.9985309856633435  0.3781508440654378
  0.2544948322751708  0.0019118736793970  0.8787847214687119
  0.2538650344220841  0.4987325359397730  0.3775725716026059
  0.2560961235296801  0.5001161216791203  0.8794440952118663
  0.7563173747164740  0.0013345185675462  0.3805798321228266
  0.7557593477792039  0.0000421963315560  0.8799145256015777
  0.7564491837472644  0.5007197814687174  0.3799862860939029
  0.7560940874269733  0.5000048041837744  0.8788432258481222
  0.1223711471259392  0.2439046799019167  0.2435445791600799
  0.1234568786587289  0.2445816978831417  0.7438904487844198
  0.1230088717504074  0.7441312488492713  0.2438963518342021
  0.1245207281777212  0.7453204659296730  0.7449340271147875
  0.6183982441359817  0.2381541377713319  0.2455294799886758
  0.6232934645115478  0.2446329540814105  0.7449779324391770
  0.6234699833535871  0.7435586322335581  0.2441219211493717
  0.6228940520896558  0.7413219189737958  0.7431143932961746
  0.2435499915572805  0.2442706604391560  0.1235370196992776
  0.2439054683150701  0.2439157877710301  0.6227517076819424
  0.2436827305955589  0.7450169840207010  0.1242628766099543
  0.2442408298155669  0.7442831640291274  0.6241555988849399
  0.7455054834439281  0.2474174214233145  0.1242902343109193
  0.7430134753036981  0.2415441732561021  0.6211641751956520
  0.7439041086676568  0.7440200612701844  0.1233479374395827
  0.7461349937236292  0.7448675199800761  0.6237075827128393
  0.2435052857586939  0.1234956270667098  0.2427815617664280
  0.2434731812941990  0.1237782794440321  0.7436102187641040
  0.2433466770873949  0.6231743842205617  0.2435966796971627
  0.2451072374661507  0.6244270352827783  0.7451431039045389
  0.7442499490563890  0.1247962944686734  0.2439856234341136
  0.7422331412715195  0.1212549417938718  0.7423054681575536
  0.7439843297051141  0.6230147118140010  0.2437376992686282
  0.7429416333908705  0.6209891802132290  0.7420833741202628
  0.9992655961137800  0.9998127892299209  0.1139408325989706
  0.0002982229943171  0.0003100215907352  0.6143298154031314
  0.9997024387357669  0.5000121561674362  0.1140323454770851
  0.0007333505349578  0.5005467166558191  0.6146732741275542
  0.4999999968884694  0.0088957959872786  0.1268871242466716
  0.4999998353418178  0.9966811997524374  0.6087710857706696
  0.5000000289868538  0.4998126383827142  0.1145382760988767
  0.4999998963276582  0.4945377946713521  0.6147760729195397
  0.9995447664633943  0.1138047348425246  0.9999261269834747
  0.9998986353985586  0.1144159004018022  0.4996908866377723
  0.0001016302705779  0.6145173911086630  0.9997924301570578
  0.0004553259058895  0.6142603803551623  0.5003813443339951
  0.5000001673960739  0.1128746615010172  0.0022891383782877
  0.5000000222779022  0.1109517302431087  0.4988797736061770
  0.5000001491926156  0.6143618494568983  0.0001147132115804
  0.5000000288805495  0.6103236426701883  0.5013873300375806
  0.1152856450553728  0.9998028567626704  0.0004500823252087
  0.1148959327521837  0.0004034407337556  0.4996989751041667
  0.1143715920540131  0.5003268138554517  0.9998957952313674
  0.1146799041360964  0.5004750791863160  0.5003409063261657
  0.6127344516596764  0.0007528443788658  0.0037977375438487
  0.6160307181884193  0.9985854927830857  0.4965290682230972
  0.6141794445023834  0.4995667760168487  0.9999942721161332
  0.6136074373075999  0.4968063569482339  0.4986697060196335
  0.3863925386539506  0.3831990626677495  0.3850623464699368
  0.3858208106553462  0.3853873799767129  0.8858148952388092
  0.3839694954839672  0.8825551253881869  0.3804983011030600
  0.3872655544344568  0.8880184387981629  0.8910632440907804
  0.8847145878957576  0.3845170062231276  0.3851641345252332
  0.8851046720182012  0.3855073588371951  0.8848033748671185
  0.8856283477704636  0.8859551988134200  0.3855240496699679
  0.8853203531026637  0.8857951355824767  0.8856612249936120
 
  0.00000000E+00  0.00000000E+00  0.00000000E+00
  0.00000000E+00  0.00000000E+00  0.00000000E+00
  0.00000000E+00  0.00000000E+00  0.00000000E+00
  0.00000000E+00  0.00000000E+00  0.00000000E+00
  0.00000000E+00  0.00000000E+00  0.00000000E+00
  0.00000000E+00  0.00000000E+00  0.00000000E+00
  0.00000000E+00  0.00000000E+00  0.00000000E+00
  0.00000000E+00  0.00000000E+00  0.00000000E+00
  0.00000000E+00  0.00000000E+00  0.00000000E+00
  0.00000000E+00  0.00000000E+00  0.00000000E+00
  0.00000000E+00  0.00000000E+00  0.00000000E+00
  0.00000000E+00  0.00000000E+00  0.00000000E+00
  0.00000000E+00  0.00000000E+00  0.00000000E+00
  0.00000000E+00  0.00000000E+00  0.00000000E+00
  0.00000000E+00  0.00000000E+00  0.00000000E+00
  0.00000000E+00  0.00000000E+00  0.00000000E+00
  0.00000000E+00  0.00000000E+00  0.00000000E+00
  0.00000000E+00  0.00000000E+00  0.00000000E+00
  0.00000000E+00  0.00000000E+00  0.00000000E+00
  0.00000000E+00  0.00000000E+00  0.00000000E+00
  0.00000000E+00  0.00000000E+00  0.00000000E+00
  0.00000000E+00  0.00000000E+00  0.00000000E+00
  0.00000000E+00  0.00000000E+00  0.00000000E+00
  0.00000000E+00  0.00000000E+00  0.00000000E+00
  0.00000000E+00  0.00000000E+00  0.00000000E+00
  0.00000000E+00  0.00000000E+00  0.00000000E+00
  0.00000000E+00  0.00000000E+00  0.00000000E+00
  0.00000000E+00  0.00000000E+00  0.00000000E+00
  0.00000000E+00  0.00000000E+00  0.00000000E+00
  0.00000000E+00  0.00000000E+00  0.00000000E+00
  0.00000000E+00  0.00000000E+00  0.00000000E+00
  0.00000000E+00  0.00000000E+00  0.00000000E+00
  0.00000000E+00  0.00000000E+00  0.00000000E+00
  0.00000000E+00  0.00000000E+00  0.00000000E+00
  0.00000000E+00  0.00000000E+00  0.00000000E+00
  0.00000000E+00  0.00000000E+00  0.00000000E+00
  0.00000000E+00  0.00000000E+00  0.00000000E+00
  0.00000000E+00  0.00000000E+00  0.00000000E+00
  0.00000000E+00  0.00000000E+00  0.00000000E+00
  0.00000000E+00  0.00000000E+00  0.00000000E+00
  0.00000000E+00  0.00000000E+00  0.00000000E+00
  0.00000000E+00  0.00000000E+00  0.00000000E+00
  0.00000000E+00  0.00000000E+00  0.00000000E+00
  0.00000000E+00  0.00000000E+00  0.00000000E+00
  0.00000000E+00  0.00000000E+00  0.00000000E+00
  0.00000000E+00  0.00000000E+00  0.00000000E+00
  0.00000000E+00  0.00000000E+00  0.00000000E+00
  0.00000000E+00  0.00000000E+00  0.00000000E+00
  0.00000000E+00  0.00000000E+00  0.00000000E+00
  0.00000000E+00  0.00000000E+00  0.00000000E+00
  0.00000000E+00  0.00000000E+00  0.00000000E+00
  0.00000000E+00  0.00000000E+00  0.00000000E+00
  0.00000000E+00  0.00000000E+00  0.00000000E+00
  0.00000000E+00  0.00000000E+00  0.00000000E+00
  0.00000000E+00  0.00000000E+00  0.00000000E+00
  0.00000000E+00  0.00000000E+00  0.00000000E+00
  0.00000000E+00  0.00000000E+00  0.00000000E+00
  0.00000000E+00  0.00000000E+00  0.00000000E+00
  0.00000000E+00  0.00000000E+00  0.00000000E+00
  0.00000000E+00  0.00000000E+00  0.00000000E+00
  0.00000000E+00  0.00000000E+00  0.00000000E+00
  0.00000000E+00  0.00000000E+00  0.00000000E+00
  0.00000000E+00  0.00000000E+00  0.00000000E+00
  0.00000000E+00  0.00000000E+00  0.00000000E+00
  0.00000000E+00  0.00000000E+00  0.00000000E+00
  0.00000000E+00  0.00000000E+00  0.00000000E+00
  0.00000000E+00  0.00000000E+00  0.00000000E+00
  0.00000000E+00  0.00000000E+00  0.00000000E+00
  0.00000000E+00  0.00000000E+00  0.00000000E+00
  0.00000000E+00  0.00000000E+00  0.00000000E+00
  0.00000000E+00  0.00000000E+00  0.00000000E+00
  0.00000000E+00  0.00000000E+00  0.00000000E+00
  0.00000000E+00  0.00000000E+00  0.00000000E+00
  0.00000000E+00  0.00000000E+00  0.00000000E+00
  0.00000000E+00  0.00000000E+00  0.00000000E+00
  0.00000000E+00  0.00000000E+00  0.00000000E+00
  0.00000000E+00  0.00000000E+00  0.00000000E+00
  0.00000000E+00  0.00000000E+00  0.00000000E+00
  0.00000000E+00  0.00000000E+00  0.00000000E+00
  0.00000000E+00  0.00000000E+00  0.00000000E+00
  0.00000000E+00  0.00000000E+00  0.00000000E+00
  0.00000000E+00  0.00000000E+00  0.00000000E+00
  0.00000000E+00  0.00000000E+00  0.00000000E+00
  0.00000000E+00  0.00000000E+00  0.00000000E+00
  0.00000000E+00  0.00000000E+00  0.00000000E+00
  0.00000000E+00  0.00000000E+00  0.00000000E+00
  0.00000000E+00  0.00000000E+00  0.00000000E+00
  0.00000000E+00  0.00000000E+00  0.00000000E+00
  0.00000000E+00  0.00000000E+00  0.00000000E+00
  0.00000000E+00  0.00000000E+00  0.00000000E+00
  0.00000000E+00  0.00000000E+00  0.00000000E+00
  0.00000000E+00  0.00000000E+00  0.00000000E+00
  0.00000000E+00  0.00000000E+00  0.00000000E+00
  0.00000000E+00  0.00000000E+00  0.00000000E+00
  0.00000000E+00  0.00000000E+00  0.00000000E+00
  0.00000000E+00  0.00000000E+00  0.00000000E+00
  0.00000000E+00  0.00000000E+00  0.00000000E+00
  0.00000000E+00  0.00000000E+00  0.00000000E+00
  0.00000000E+00  0.00000000E+00  0.00000000E+00
  0.00000000E+00  0.00000000E+00  0.00000000E+00
  0.00000000E+00  0.00000000E+00  0.00000000E+00
  0.00000000E+00  0.00000000E+00  0.00000000E+00
  0.00000000E+00  0.00000000E+00  0.00000000E+00
  0.00000000E+00  0.00000000E+00  0.00000000E+00
  0.00000000E+00  0.00000000E+00  0.00000000E+00
  0.00000000E+00  0.00000000E+00  0.00000000E+00
  0.00000000E+00  0.00000000E+00  0.00000000E+00
  0.00000000E+00  0.00000000E+00  0.00000000E+00
  0.00000000E+00  0.00000000E+00  0.00000000E+00
  0.00000000E+00  0.00000000E+00  0.00000000E+00
  0.00000000E+00  0.00000000E+00  0.00000000E+00
  0.00000000E+00  0.00000000E+00  0.00000000E+00
  0.00000000E+00  0.00000000E+00  0.00000000E+00
  0.00000000E+00  0.00000000E+00  0.00000000E+00
  0.00000000E+00  0.00000000E+00  0.00000000E+00
  0.00000000E+00  0.00000000E+00  0.00000000E+00
  0.00000000E+00  0.00000000E+00  0.00000000E+00
  0.00000000E+00  0.00000000E+00  0.00000000E+00
  0.00000000E+00  0.00000000E+00  0.00000000E+00
  0.00000000E+00  0.00000000E+00  0.00000000E+00
  0.00000000E+00  0.00000000E+00  0.00000000E+00
  0.00000000E+00  0.00000000E+00  0.00000000E+00
  0.00000000E+00  0.00000000E+00  0.00000000E+00
  0.00000000E+00  0.00000000E+00  0.00000000E+00
  0.00000000E+00  0.00000000E+00  0.00000000E+00
  0.00000000E+00  0.00000000E+00  0.00000000E+00
  0.00000000E+00  0.00000000E+00  0.00000000E+00
  0.00000000E+00  0.00000000E+00  0.00000000E+00
  0.00000000E+00  0.00000000E+00  0.00000000E+00
  0.00000000E+00  0.00000000E+00  0.00000000E+00
  0.00000000E+00  0.00000000E+00  0.00000000E+00
  0.00000000E+00  0.00000000E+00  0.00000000E+00
  0.00000000E+00  0.00000000E+00  0.00000000E+00
  0.00000000E+00  0.00000000E+00  0.00000000E+00
  0.00000000E+00  0.00000000E+00  0.00000000E+00
  0.00000000E+00  0.00000000E+00  0.00000000E+00
  0.00000000E+00  0.00000000E+00  0.00000000E+00
  0.00000000E+00  0.00000000E+00  0.00000000E+00
  0.00000000E+00  0.00000000E+00  0.00000000E+00
  0.00000000E+00  0.00000000E+00  0.00000000E+00
  0.00000000E+00  0.00000000E+00  0.00000000E+00
  0.00000000E+00  0.00000000E+00  0.00000000E+00
  0.00000000E+00  0.00000000E+00  0.00000000E+00
  0.00000000E+00  0.00000000E+00  0.00000000E+00
  0.00000000E+00  0.00000000E+00  0.00000000E+00
  0.00000000E+00  0.00000000E+00  0.00000000E+00
  0.00000000E+00  0.00000000E+00  0.00000000E+00
  0.00000000E+00  0.00000000E+00  0.00000000E+00
  0.00000000E+00  0.00000000E+00  0.00000000E+00
  0.00000000E+00  0.00000000E+00  0.00000000E+00
  0.00000000E+00  0.00000000E+00  0.00000000E+00
  0.00000000E+00  0.00000000E+00  0.00000000E+00
  0.00000000E+00  0.00000000E+00  0.00000000E+00
  0.00000000E+00  0.00000000E+00  0.00000000E+00
  0.00000000E+00  0.00000000E+00  0.00000000E+00
  0.00000000E+00  0.00000000E+00  0.00000000E+00
  0.00000000E+00  0.00000000E+00  0.00000000E+00
  0.00000000E+00  0.00000000E+00  0.00000000E+00
  0.00000000E+00  0.00000000E+00  0.00000000E+00
  0.00000000E+00  0.00000000E+00  0.00000000E+00
  0.00000000E+00  0.00000000E+00  0.00000000E+00
  0.00000000E+00  0.00000000E+00  0.00000000E+00
  0.00000000E+00  0.00000000E+00  0.00000000E+00
  0.00000000E+00  0.00000000E+00  0.00000000E+00
  0.00000000E+00  0.00000000E+00  0.00000000E+00
  0.00000000E+00  0.00000000E+00  0.00000000E+00
  0.00000000E+00  0.00000000E+00  0.00000000E+00
  0.00000000E+00  0.00000000E+00  0.00000000E+00
  0.00000000E+00  0.00000000E+00  0.00000000E+00
  0.00000000E+00  0.00000000E+00  0.00000000E+00
  0.00000000E+00  0.00000000E+00  0.00000000E+00
  0.00000000E+00  0.00000000E+00  0.00000000E+00
  0.00000000E+00  0.00000000E+00  0.00000000E+00
  0.00000000E+00  0.00000000E+00  0.00000000E+00
  0.00000000E+00  0.00000000E+00  0.00000000E+00
  0.00000000E+00  0.00000000E+00  0.00000000E+00
  0.00000000E+00  0.00000000E+00  0.00000000E+00
  0.00000000E+00  0.00000000E+00  0.00000000E+00
  0.00000000E+00  0.00000000E+00  0.00000000E+00
  0.00000000E+00  0.00000000E+00  0.00000000E+00
  0.00000000E+00  0.00000000E+00  0.00000000E+00
  0.00000000E+00  0.00000000E+00  0.00000000E+00
  0.00000000E+00  0.00000000E+00  0.00000000E+00
  0.00000000E+00  0.00000000E+00  0.00000000E+00
  0.00000000E+00  0.00000000E+00  0.00000000E+00
  0.00000000E+00  0.00000000E+00  0.00000000E+00
  0.00000000E+00  0.00000000E+00  0.00000000E+00
  0.00000000E+00  0.00000000E+00  0.00000000E+00
  0.00000000E+00  0.00000000E+00  0.00000000E+00
  0.00000000E+00  0.00000000E+00  0.00000000E+00
  0.00000000E+00  0.00000000E+00  0.00000000E+00
  0.00000000E+00  0.00000000E+00  0.00000000E+00
  0.00000000E+00  0.00000000E+00  0.00000000E+00
  0.00000000E+00  0.00000000E+00  0.00000000E+00
  0.00000000E+00  0.00000000E+00  0.00000000E+00
  0.00000000E+00  0.00000000E+00  0.00000000E+00
  0.00000000E+00  0.00000000E+00  0.00000000E+00
  0.00000000E+00  0.00000000E+00  0.00000000E+00
  0.00000000E+00  0.00000000E+00  0.00000000E+00
  0.00000000E+00  0.00000000E+00  0.00000000E+00
  0.00000000E+00  0.00000000E+00  0.00000000E+00
  0.00000000E+00  0.00000000E+00  0.00000000E+00
  0.00000000E+00  0.00000000E+00  0.00000000E+00
  0.00000000E+00  0.00000000E+00  0.00000000E+00
  0.00000000E+00  0.00000000E+00  0.00000000E+00
  0.00000000E+00  0.00000000E+00  0.00000000E+00
  0.00000000E+00  0.00000000E+00  0.00000000E+00
  0.00000000E+00  0.00000000E+00  0.00000000E+00
  0.00000000E+00  0.00000000E+00  0.00000000E+00
  0.00000000E+00  0.00000000E+00  0.00000000E+00
  0.00000000E+00  0.00000000E+00  0.00000000E+00
  0.00000000E+00  0.00000000E+00  0.00000000E+00
  0.00000000E+00  0.00000000E+00  0.00000000E+00
  0.00000000E+00  0.00000000E+00  0.00000000E+00
  0.00000000E+00  0.00000000E+00  0.00000000E+00
  0.00000000E+00  0.00000000E+00  0.00000000E+00
  0.00000000E+00  0.00000000E+00  0.00000000E+00
  0.00000000E+00  0.00000000E+00  0.00000000E+00
  0.00000000E+00  0.00000000E+00  0.00000000E+00
  0.00000000E+00  0.00000000E+00  0.00000000E+00
  0.00000000E+00  0.00000000E+00  0.00000000E+00
  0.00000000E+00  0.00000000E+00  0.00000000E+00
  0.00000000E+00  0.00000000E+00  0.00000000E+00
  0.00000000E+00  0.00000000E+00  0.00000000E+00
  0.00000000E+00  0.00000000E+00  0.00000000E+00
  0.00000000E+00  0.00000000E+00  0.00000000E+00
  0.00000000E+00  0.00000000E+00  0.00000000E+00
  0.00000000E+00  0.00000000E+00  0.00000000E+00
  0.00000000E+00  0.00000000E+00  0.00000000E+00
  0.00000000E+00  0.00000000E+00  0.00000000E+00
  0.00000000E+00  0.00000000E+00  0.00000000E+00
  0.00000000E+00  0.00000000E+00  0.00000000E+00
  0.00000000E+00  0.00000000E+00  0.00000000E+00
  0.00000000E+00  0.00000000E+00  0.00000000E+00
  0.00000000E+00  0.00000000E+00  0.00000000E+00
  0.00000000E+00  0.00000000E+00  0.00000000E+00
  0.00000000E+00  0.00000000E+00  0.00000000E+00
  0.00000000E+00  0.00000000E+00  0.00000000E+00
  0.00000000E+00  0.00000000E+00  0.00000000E+00
  0.00000000E+00  0.00000000E+00  0.00000000E+00
  0.00000000E+00  0.00000000E+00  0.00000000E+00
  0.00000000E+00  0.00000000E+00  0.00000000E+00
  0.00000000E+00  0.00000000E+00  0.00000000E+00
  0.00000000E+00  0.00000000E+00  0.00000000E+00
  0.00000000E+00  0.00000000E+00  0.00000000E+00
  0.00000000E+00  0.00000000E+00  0.00000000E+00
  0.00000000E+00  0.00000000E+00  0.00000000E+00
  0.00000000E+00  0.00000000E+00  0.00000000E+00
  0.00000000E+00  0.00000000E+00  0.00000000E+00
  0.00000000E+00  0.00000000E+00  0.00000000E+00
  0.00000000E+00  0.00000000E+00  0.00000000E+00
  0.00000000E+00  0.00000000E+00  0.00000000E+00
  0.00000000E+00  0.00000000E+00  0.00000000E+00
  0.00000000E+00  0.00000000E+00  0.00000000E+00
  0.00000000E+00  0.00000000E+00  0.00000000E+00
  0.00000000E+00  0.00000000E+00  0.00000000E+00
