Li63 Ta64 O192                          
   1.00000000000000     
    15.0337320000000005   -0.0060940000000000   -0.0057460000000000
     0.9606630000000000   15.0030490000000007   -0.0057500000000000
     0.9606080000000000    0.9007180000000000   14.9759290000000007
   Li   Ta   O 
    63    64   192
Direct
  0.3908900020249675  0.3897459902770635  0.8892438904154432
  0.3897458643906191  0.8892437422981416  0.3908898310827595
  0.3899696365778382  0.8896844722081667  0.8901113191801429
  0.8892433665180022  0.3908903342832843  0.3897458687532662
  0.8901109768879394  0.3899694273444538  0.8896848287343389
  0.8896845668998523  0.8901108737160115  0.3899692442259663
  0.8898586373228241  0.8898585706158215  0.8898583242539075
  0.1400457338887193  0.3904601415584281  0.1396428727802714
  0.1405384016989260  0.3902048156585991  0.6384214556984347
  0.1399255035241609  0.8898507471214003  0.1401081576111949
  0.1399729483457506  0.8897024102478497  0.6398457617358986
  0.6390790812773091  0.3910449124339976  0.1399639501123104
  0.6394828669723793  0.3900821178037290  0.6392734500645005
  0.6397556491657213  0.8898451157675353  0.1399512769584774
  0.6397984455259405  0.8896714312050733  0.6399760864842037
  0.3904598184422241  0.1396425861508277  0.1400455393493445
  0.3910451160931814  0.1399639392182124  0.6390788634204299
  0.3902049907659304  0.6384211572592946  0.1405383052635543
  0.3900817682719335  0.6392734302148710  0.6394828706296636
  0.8898506017764802  0.1401084095859204  0.1399252862718896
  0.8898451871716588  0.1399515381391723  0.6397557950279591
  0.8897025513950396  0.6398458903128628  0.1399730211682524
  0.8896715594542428  0.6399760288775838  0.6397987155946794
  0.1396428959473184  0.1400454048753375  0.3904598687683034
  0.1401082486331475  0.1399256619440550  0.8898508458170653
  0.1399640531237054  0.6390789663938250  0.3910449596069157
  0.1399514552964618  0.6397557569671122  0.8898453928952748
  0.6384212326095735  0.1405381963285635  0.3902052224331598
  0.6398460349667658  0.1399729599711179  0.8897025070719593
  0.6392734449469728  0.6394829477449591  0.3900821201509501
  0.6399759009823782  0.6397987004578169  0.8896714778261128
  0.1402450546201095  0.1402456849740048  0.1402452787679920
  0.1400832498904379  0.1401880037655374  0.6393508795623504
  0.1401877220832333  0.6393512322625625  0.1400831993338159
  0.1398965234662128  0.6388495331208262  0.6383473443126917
  0.6393514862575671  0.1400831264935007  0.1401872151248540
  0.6383472060066708  0.1398965329459330  0.6388491480081271
  0.6388493618015829  0.6383473950583323  0.1398966583617636
  0.6397063275759294  0.6397065862774340  0.6397064304461964
  0.3912940881670366  0.1403573561837632  0.3899347859102349
  0.3900495715195689  0.1405205983128255  0.8894830603791917
  0.3909406856109996  0.6414503513509402  0.3900136305351438
  0.3899599059722547  0.6398515000831040  0.8898063131591343
  0.8896549727644825  0.1397468678896061  0.3901353106988026
  0.8898320755642359  0.1399304990222205  0.8899105885916754
  0.8897088746144775  0.6392247470827996  0.3901143889711207
  0.8898324085604372  0.6399500884622285  0.8898604872253770
  0.1403573438918144  0.3899350104942130  0.3912940245402154
  0.1397470239264038  0.3901354420002221  0.8896548032558016
  0.1405203545260605  0.8894834639431721  0.3900497323702865
  0.1399302124760453  0.8899106324610955  0.8898321521346801
  0.6414502654791647  0.3900137405051751  0.3909407145668666
  0.6392249128358642  0.3901144502164868  0.8897090987714975
  0.6398513571346811  0.8898062307123169  0.3899599039365285
  0.6399500528149105  0.8898604629850411  0.8898323176352960
  0.3899347735032066  0.3912945608256493  0.1403573664520081
  0.3900139766197910  0.3909407785839321  0.6414501529073391
  0.3901351697540250  0.8896551974135392  0.1397470423412628
  0.3901144567252857  0.8897088968555593  0.6392246784743492
  0.8894833651566216  0.3900498445061942  0.1405203726427189
  0.8898062669573576  0.3899602761250733  0.6398514590697246
  0.8899102730748112  0.8898321646478564  0.1399301906541837
  0.8898607341716911  0.8898325843381372  0.6399500936172160
  0.2484908964105372  0.2484912258438499  0.2484909324007845
  0.2479445213113394  0.2481181495174098  0.7477011051898970
  0.2481178551509018  0.7477015667600355  0.2479445161923692
  0.2480949417992733  0.7480213566339984  0.7479535655349920
  0.7477011184918823  0.2479450571024060  0.2481177399133614
  0.7479535203367647  0.2480953601583380  0.7480204173404204
  0.7480204007704643  0.7479538667198398  0.2480950874564840
  0.7481014745585739  0.7481017656942797  0.7481013797830087
  0.4960340753169490  0.2515386285654913  0.4970831858981057
  0.4980776197955308  0.2482334336704213  0.9977715261356366
  0.4984924237909709  0.7476741940224940  0.4983667878832989
  0.4981254837920872  0.7478336500816312  0.9980566735955207
  0.9973960318324586  0.2481043164659340  0.4981058102956055
  0.9979775335652761  0.2481057811306826  0.9981360083123505
  0.9979773529154201  0.7480645629469223  0.4979605767388691
  0.9981453195669232  0.7480093898434461  0.9981079555409309
  0.2515384996744672  0.4970833049965506  0.4960343658572057
  0.2481035260099773  0.4981062923601627  0.9973966396912459
  0.2482329391149278  0.9977717174761125  0.4980774704899389
  0.2481055521794389  0.9981363050721797  0.9979775170726413
  0.7476736897278329  0.4983676746417274  0.4984924865447979
  0.7480639805927680  0.4979607962640102  0.9979778970186644
  0.7478331445327342  0.9980578013050874  0.4981255853928133
  0.7480091049141109  0.9981083435854075  0.9981455884712958
  0.4970830673985063  0.4960346859996889  0.2515384847600757
  0.4983667168923915  0.4984930757553911  0.7476741018694995
  0.4981058404073195  0.9973967486737365  0.2481037720073260
  0.4979607747559029  0.9979779806945359  0.7480640370192759
  0.9977715628886017  0.4980775688764183  0.2482331632172432
  0.9980564299454429  0.4981259795953008  0.7478333990041151
  0.9981358991864866  0.9979780219011190  0.2481053675641718
  0.9981083234118202  0.9981458410480712  0.7480090916707951
  0.4973201813851631  0.4973205668461489  0.4973196723682918
  0.4982576156772538  0.4984480531153253  0.9982591943280994
  0.4984478786682800  0.9982596132445352  0.4982570210333179
  0.4981132529850214  0.9979772555931063  0.9978777001121344
  0.9982593528960848  0.4982575862287746  0.4984475510031103
  0.9978774774341019  0.4981136812354947  0.9979771757816067
  0.9979771484791726  0.9978780464624180  0.4981127413376853
  0.9980788672232066  0.9980793802106263  0.9980784650305026
  0.2484217347686624  0.4976440292052402  0.2480556492290873
  0.2482444588097579  0.4980128158844437  0.7473885296438354
  0.2481502982683423  0.9979290586836242  0.2481824239420263
  0.2483157874820705  0.9979120807484563  0.7480621515700676
  0.7468498331606526  0.4984397825565807  0.2478608623050889
  0.7483117285758425  0.4980472943605179  0.7480230976203757
  0.7479845774129785  0.9981623314661547  0.2481142953152968
  0.7480823532770415  0.9982397054133045  0.7479470600453055
  0.4976438124104448  0.2480563326939986  0.2484215209373346
  0.4984393522445600  0.2478613784026749  0.7468499553272778
  0.4980119575337483  0.7473887780347326  0.2482443167779564
  0.4980471172169416  0.7480236154042146  0.7483116519431974
  0.9979289279913743  0.2481831223070188  0.2481498463360765
  0.9981619616512702  0.2481149062431101  0.7479842538953250
  0.9979118567807603  0.7480626830115042  0.2483156490978686
  0.9982393937904277  0.7479479140318404  0.7480820454462673
  0.2480559754536458  0.2484219248369257  0.4976433688339696
  0.2481827302411972  0.2481506039578676  0.9979285421937689
  0.2478610099964271  0.7468504952285926  0.4984390731148736
  0.2481144529484425  0.7479848072007371  0.9981619755868607
  0.7473879114598390  0.2482457240713671  0.4980107688368420
  0.7480624784304908  0.2483160795755879  0.9979116657083225
  0.7480233117996562  0.7483122385211729  0.4980467227409662
  0.7479473405740791  0.7480821138898932  0.9982392895506962
  0.2080026177034640  0.3687390458486988  0.2706756330379818
  0.2079325981831701  0.3684697961252610  0.7702997642593274
  0.2079242419761442  0.8684955710279709  0.2700273003288913
  0.2078260603296869  0.8683031628526123  0.7706149952020738
  0.7085835625726276  0.3682156248473660  0.2709886484661936
  0.7081504053049841  0.3684075456044766  0.7707873623317454
  0.7081311783403450  0.8683740385256584  0.2706239842532625
  0.7081199427116260  0.8684538200761764  0.7706176299560497
  0.4582704137460283  0.3685476592660777  0.0203887870849684
  0.4599699972718554  0.3695158813548360  0.5257438153065337
  0.4579485136949515  0.8682576452970068  0.0203893941212314
  0.4578754899832944  0.8679882045321961  0.5204427824282973
  0.9579222089342778  0.3684235320296381  0.0206938394879899
  0.9579859630527778  0.3685437237102249  0.5208086960244813
  0.9580509107484687  0.8684304108785028  0.0205369196678262
  0.9577285910471076  0.8684816537185043  0.5206801071443579
  0.2080329485323134  0.1184084117489945  0.0206665644069020
  0.2078109120284424  0.1178257590987073  0.5206415294891826
  0.2078709042837446  0.6185320386380369  0.0200814210571849
  0.2078182656972132  0.6183385142983369  0.5195654871952087
  0.7081909605574310  0.1184122953860509  0.0206998005650192
  0.7080786021455125  0.1183205471229698  0.5207918109802847
  0.7080897371360138  0.6184122933274878  0.0205233214566718
  0.7082357592502575  0.6189014096126471  0.5208669755150552
  0.4578828248462443  0.1176516937177396  0.2692599325919005
  0.4579680533877806  0.1180847543146868  0.7707176758319605
  0.4587296787729187  0.6182341239079321  0.2708699277050926
  0.4579873971732127  0.6187181769215897  0.7710124421696705
  0.9583175270096476  0.1183419357450077  0.2707361340556318
  0.9579675549800086  0.1183809400829219  0.7707071747154757
  0.9577401895372049  0.6186872703752613  0.2704936385600689
  0.9580316979148407  0.6184721945811305  0.7707151815315214
  0.2706755125112608  0.2080026459143696  0.3687390142122311
  0.2700272245499633  0.2079242081704891  0.8684954727015750
  0.2709886409472873  0.7085833451322472  0.3682156808069621
  0.2706239577366318  0.7081310119699680  0.8683740581751636
  0.7702998166488442  0.2079325843523279  0.3684694643433772
  0.7706148478490320  0.2078258277029619  0.8683029275585099
  0.7707874174845060  0.7081503688676349  0.3684076586829548
  0.7706177812519570  0.7081195814832526  0.8684537597150737
  0.0206664640411631  0.2080327166643698  0.1184083395999380
  0.0200810538493528  0.2078710460457032  0.6185317265274861
  0.0206995160217716  0.7081902114587848  0.1184125242155147
  0.0205207678052446  0.7080915147655418  0.6184133005108379
  0.5206417371284857  0.2078107017958288  0.1178256469349961
  0.5195643882682859  0.2078179597431813  0.6183387301587402
  0.5207920632437322  0.7080781584769014  0.1183204802722742
  0.5208670699672453  0.7082357799104955  0.6189014032981177
  0.2692598340785750  0.4578827734080164  0.1176518779985898
  0.2708704686166286  0.4587299589926985  0.6182343560198902
  0.2707361109013249  0.9583175268490720  0.1183419530088656
  0.2704917150822439  0.9577393218458852  0.6186878116960415
  0.7707173657423994  0.4579682874730224  0.1180846836359208
  0.7710121998881618  0.4579869796460656  0.6187178007760039
  0.7707074438421770  0.9579671388325366  0.1183809399251743
  0.7707154914031022  0.9580321175754776  0.6184723090948552
  0.0203887192047958  0.4582701691175117  0.3685480499027136
  0.0203895926094049  0.4579483704531029  0.8682578332458704
  0.0206937208919555  0.9579221765462478  0.3684234891988254
  0.0205371136925905  0.9580509799858703  0.8684302199037290
  0.5257435658165335  0.4599701003574950  0.3695160425168993
  0.5204427437498964  0.4578752000586022  0.8679881768803028
  0.5208085547606132  0.9579859932878989  0.3685438983961333
  0.5206804031603127  0.9577285272046083  0.8684817750424614
  0.3687387970503408  0.2706758168902113  0.2080025380305344
  0.3682152071872054  0.2709904486004078  0.7085832234493097
  0.3684693418047260  0.7703001983279165  0.2079323396111903
  0.3684073872660960  0.7707875947691392  0.7081505571465954
  0.8684954184402685  0.2700273661761301  0.2079240165826448
  0.8683736789646943  0.2706240650766532  0.7081312334023053
  0.8683030182888700  0.7706149824128801  0.2078260786052937
  0.8684534541574820  0.7706179035365821  0.7081196967510621
  0.1176514896721628  0.2692601982367080  0.4578828439352449
  0.1183416593082924  0.2707363620950005  0.9583172962428890
  0.1180844621282233  0.7707172795083466  0.4579683253210121
  0.1183806278909714  0.7707074433230261  0.9579674630200330
  0.6182335559856114  0.2708701608865169  0.4587298355949514
  0.6186876898170368  0.2704918412423396  0.9577394821733094
  0.6187177510416575  0.7710122806113517  0.4579868485562173
  0.6184720446231893  0.7707150206924496  0.9580318413083262
  0.3685472339440494  0.0203886636716319  0.4582703286440974
  0.3684231075651923  0.0206938661052476  0.9579220668433379
  0.3695158451816596  0.5257437059979537  0.4599698626829323
  0.3685436660722132  0.5208087689967655  0.9579860803718034
  0.8682576254009717  0.0203895639989540  0.4579481356613329
  0.8684302168124987  0.0205365599148308  0.9580504997064878
  0.8679880534312616  0.5204429859468860  0.4578754012066710
  0.8684812378736524  0.5206803034835232  0.9577284137596891
  0.1184081762692557  0.0206665605077916  0.2080328571121512
  0.1184119371646375  0.0206999753408681  0.7081903889314276
  0.1178254171098203  0.5206418310613756  0.2078108614073102
  0.1183201807712493  0.5207927345544050  0.7080782189847881
  0.6185315645826535  0.0200814544280803  0.2078709523493742
  0.6184121240605549  0.0205233446106519  0.7080896505865582
  0.6183384130155432  0.5195655309175962  0.2078181379760835
  0.6189013158798033  0.5208671824292779  0.7082356103908083
  0.2085735803714641  0.2705347468913644  0.1185262120830757
  0.2074446220614803  0.2689273907235545  0.6191104769259965
  0.2077842968779109  0.7710368449699203  0.1181660921343664
  0.2075891559564980  0.7702440760074012  0.6186744542546450
  0.7084946790519453  0.2711814996752793  0.1180647803282184
  0.7080182180424615  0.2707149368770558  0.6185490127190363
  0.7080057771386308  0.7709717443014199  0.1183605271884929
  0.7081194570425779  0.7708034541554056  0.6185066581834988
  0.4618011226939132  0.2637418465839829  0.3691099492555736
  0.4584051851087239  0.2698021201910450  0.8680690482773343
  0.4580491898046972  0.7702290869418960  0.3684919023537603
  0.4577947428907834  0.7708353930549379  0.8685622853647743
  0.9576453021347859  0.2707901070498977  0.3683839359692413
  0.9580896005005428  0.2706340891079151  0.8684031175469471
  0.9576313261706346  0.7711700750798940  0.3683859943679693
  0.9580046126681410  0.7706383170614686  0.8683977726249097
  0.2079622522976123  0.0203167655685590  0.3684980214871274
  0.2078689002395819  0.0203274263654194  0.8685043211773973
  0.2088985481334831  0.5209389094303631  0.3683268974085010
  0.2079858621819426  0.5205041630807230  0.8680126878487542
  0.7078582831144402  0.0207904737124665  0.3683976825685349
  0.7081076627691303  0.0206033615150432  0.8683908107770577
  0.7087732351887581  0.5210704107358310  0.3684535432515261
  0.7083314285753985  0.5208396115636376  0.8682418183199232
  0.4579811830534837  0.0198605117383863  0.1182516741904251
  0.4577068487630669  0.0195313242483195  0.6190057891056568
  0.4605575579612520  0.5214131124648489  0.1174792736635197
  0.4590598831709798  0.5211804587227249  0.6189561036613682
  0.9580380557903894  0.0206617822523540  0.1183938162796636
  0.9579051812184574  0.0205127502505036  0.6185319210028553
  0.9580698899682076  0.5208493872433451  0.1181504367839423
  0.9572170126581767  0.5208703083005517  0.6188337818157734
  0.1185261882558919  0.2085748704075883  0.2705347754657410
  0.1181661172668242  0.2077849314544622  0.7710369823246879
  0.1180646216276955  0.7084949173180419  0.2711817270665620
  0.1183606434571800  0.7080059729226988  0.7709717759030781
  0.6191103570455780  0.2074448962594033  0.2689279871774843
  0.6186741898524843  0.2075895372643259  0.7702440527518633
  0.6185493084173572  0.7080181613667023  0.2707146550347943
  0.6185067107673206  0.7081197307955236  0.7708033803654359
  0.3684979587382387  0.2079625606762647  0.0203169435759420
  0.3683264279282525  0.2088987924677923  0.5209388265487078
  0.3683976458305622  0.7078585612665975  0.0207905497474528
  0.3684535322585916  0.7087736210097688  0.5210699704932438
  0.8685046159390311  0.2078690711838576  0.0203272853333090
  0.8680125321978380  0.2079872077573697  0.5205040425412761
  0.8683906168985231  0.7081075081961146  0.0206038255594621
  0.8682417893123642  0.7083313727666081  0.5208398742379927
  0.1182512343027753  0.4579824865756308  0.0198620504513300
  0.1174792176044619  0.4605575284030365  0.5214136747638918
  0.1183938981727408  0.9580381133287759  0.0206619386672457
  0.1181501666721090  0.9580702366500660  0.5208494007206284
  0.6190060534452613  0.4577069236144951  0.0195313632935523
  0.6189560902683056  0.4590601188349339  0.5211809677005235
  0.6185320636540155  0.9579054417187649  0.0205141307846120
  0.6188337291528399  0.9572170611088353  0.5208704278174423
  0.3691095220528595  0.4618014735207154  0.2637419145406881
  0.3684915678170242  0.4580502707153116  0.7702298199026103
  0.3683839179947981  0.9576450561781797  0.2707901753665709
  0.3683859794283890  0.9576313500471869  0.7711701066543384
  0.8680688665693239  0.4584054372640978  0.2698022941939513
  0.8685623129081250  0.4577948639989344  0.7708354766280152
  0.8684028294839976  0.9580899123245743  0.2706342148504817
  0.8683977179601641  0.9580050790184487  0.7706386006298800
  0.2705351148511355  0.1185258619632492  0.2085752918527319
  0.2711821983078480  0.1180645362694435  0.7084950744523297
  0.2689277796733620  0.6191102734888929  0.2074449455327141
  0.2707143396270055  0.6185495371768468  0.7080179763646512
  0.7710370742430683  0.1181659942042401  0.2077847711215668
  0.7709717966120877  0.1183606337099690  0.7080062904013857
  0.7702441871447618  0.6186743206733567  0.2075894704556021
  0.7708035477885673  0.6185063521863299  0.7081198269447526
  0.0198614244958293  0.1182514534303820  0.4579815124325108
  0.0206621115585151  0.1183937699634683  0.9580382377260861
  0.0195315561355542  0.6190058813014474  0.4577071131886612
  0.0205128980220124  0.6185320737316431  0.9579053640524720
  0.5214136785117915  0.1174789771276181  0.4605578101228005
  0.5208496417877271  0.1181499285118974  0.9580703969184015
  0.5211806327518147  0.6189559928783552  0.4590602148921406
  0.5208702861069057  0.6188336061604076  0.9572172295171768
  0.2637420622556945  0.3691095086932563  0.4618013845231630
  0.2707895701399536  0.3683838126936934  0.9576454270802159
  0.2698022448982442  0.8680688008494641  0.4584055221453838
  0.2706341616411621  0.8684027150101343  0.9580898363823067
  0.7702285604404935  0.3684916582542996  0.4580482644447841
  0.7711703128189171  0.3683861092509488  0.9576315329370289
  0.7708354392499359  0.8685621196533759  0.4577951147682100
  0.7706385238781266  0.8683973573710162  0.9580047628552251
  0.0203172295213250  0.3684976313351243  0.2079625722938516
  0.0207906359442163  0.3683977767606308  0.7078587494042736
  0.0203275773392591  0.8685041035597791  0.2078692111297116
  0.0206039363214074  0.8683905255323268  0.7081078672798853
  0.5209390495199386  0.3683264491826392  0.2088990790142162
  0.5210692229191025  0.3684534200000726  0.7087741260998186
  0.5205051827032818  0.8680126486813151  0.2079877286971481
  0.5208398830638004  0.8682417061500090  0.7083317117254282
 
  0.00000000E+00  0.00000000E+00  0.00000000E+00
  0.00000000E+00  0.00000000E+00  0.00000000E+00
  0.00000000E+00  0.00000000E+00  0.00000000E+00
  0.00000000E+00  0.00000000E+00  0.00000000E+00
  0.00000000E+00  0.00000000E+00  0.00000000E+00
  0.00000000E+00  0.00000000E+00  0.00000000E+00
  0.00000000E+00  0.00000000E+00  0.00000000E+00
  0.00000000E+00  0.00000000E+00  0.00000000E+00
  0.00000000E+00  0.00000000E+00  0.00000000E+00
  0.00000000E+00  0.00000000E+00  0.00000000E+00
  0.00000000E+00  0.00000000E+00  0.00000000E+00
  0.00000000E+00  0.00000000E+00  0.00000000E+00
  0.00000000E+00  0.00000000E+00  0.00000000E+00
  0.00000000E+00  0.00000000E+00  0.00000000E+00
  0.00000000E+00  0.00000000E+00  0.00000000E+00
  0.00000000E+00  0.00000000E+00  0.00000000E+00
  0.00000000E+00  0.00000000E+00  0.00000000E+00
  0.00000000E+00  0.00000000E+00  0.00000000E+00
  0.00000000E+00  0.00000000E+00  0.00000000E+00
  0.00000000E+00  0.00000000E+00  0.00000000E+00
  0.00000000E+00  0.00000000E+00  0.00000000E+00
  0.00000000E+00  0.00000000E+00  0.00000000E+00
  0.00000000E+00  0.00000000E+00  0.00000000E+00
  0.00000000E+00  0.00000000E+00  0.00000000E+00
  0.00000000E+00  0.00000000E+00  0.00000000E+00
  0.00000000E+00  0.00000000E+00  0.00000000E+00
  0.00000000E+00  0.00000000E+00  0.00000000E+00
  0.00000000E+00  0.00000000E+00  0.00000000E+00
  0.00000000E+00  0.00000000E+00  0.00000000E+00
  0.00000000E+00  0.00000000E+00  0.00000000E+00
  0.00000000E+00  0.00000000E+00  0.00000000E+00
  0.00000000E+00  0.00000000E+00  0.00000000E+00
  0.00000000E+00  0.00000000E+00  0.00000000E+00
  0.00000000E+00  0.00000000E+00  0.00000000E+00
  0.00000000E+00  0.00000000E+00  0.00000000E+00
  0.00000000E+00  0.00000000E+00  0.00000000E+00
  0.00000000E+00  0.00000000E+00  0.00000000E+00
  0.00000000E+00  0.00000000E+00  0.00000000E+00
  0.00000000E+00  0.00000000E+00  0.00000000E+00
  0.00000000E+00  0.00000000E+00  0.00000000E+00
  0.00000000E+00  0.00000000E+00  0.00000000E+00
  0.00000000E+00  0.00000000E+00  0.00000000E+00
  0.00000000E+00  0.00000000E+00  0.00000000E+00
  0.00000000E+00  0.00000000E+00  0.00000000E+00
  0.00000000E+00  0.00000000E+00  0.00000000E+00
  0.00000000E+00  0.00000000E+00  0.00000000E+00
  0.00000000E+00  0.00000000E+00  0.00000000E+00
  0.00000000E+00  0.00000000E+00  0.00000000E+00
  0.00000000E+00  0.00000000E+00  0.00000000E+00
  0.00000000E+00  0.00000000E+00  0.00000000E+00
  0.00000000E+00  0.00000000E+00  0.00000000E+00
  0.00000000E+00  0.00000000E+00  0.00000000E+00
  0.00000000E+00  0.00000000E+00  0.00000000E+00
  0.00000000E+00  0.00000000E+00  0.00000000E+00
  0.00000000E+00  0.00000000E+00  0.00000000E+00
  0.00000000E+00  0.00000000E+00  0.00000000E+00
  0.00000000E+00  0.00000000E+00  0.00000000E+00
  0.00000000E+00  0.00000000E+00  0.00000000E+00
  0.00000000E+00  0.00000000E+00  0.00000000E+00
  0.00000000E+00  0.00000000E+00  0.00000000E+00
  0.00000000E+00  0.00000000E+00  0.00000000E+00
  0.00000000E+00  0.00000000E+00  0.00000000E+00
  0.00000000E+00  0.00000000E+00  0.00000000E+00
  0.00000000E+00  0.00000000E+00  0.00000000E+00
  0.00000000E+00  0.00000000E+00  0.00000000E+00
  0.00000000E+00  0.00000000E+00  0.00000000E+00
  0.00000000E+00  0.00000000E+00  0.00000000E+00
  0.00000000E+00  0.00000000E+00  0.00000000E+00
  0.00000000E+00  0.00000000E+00  0.00000000E+00
  0.00000000E+00  0.00000000E+00  0.00000000E+00
  0.00000000E+00  0.00000000E+00  0.00000000E+00
  0.00000000E+00  0.00000000E+00  0.00000000E+00
  0.00000000E+00  0.00000000E+00  0.00000000E+00
  0.00000000E+00  0.00000000E+00  0.00000000E+00
  0.00000000E+00  0.00000000E+00  0.00000000E+00
  0.00000000E+00  0.00000000E+00  0.00000000E+00
  0.00000000E+00  0.00000000E+00  0.00000000E+00
  0.00000000E+00  0.00000000E+00  0.00000000E+00
  0.00000000E+00  0.00000000E+00  0.00000000E+00
  0.00000000E+00  0.00000000E+00  0.00000000E+00
  0.00000000E+00  0.00000000E+00  0.00000000E+00
  0.00000000E+00  0.00000000E+00  0.00000000E+00
  0.00000000E+00  0.00000000E+00  0.00000000E+00
  0.00000000E+00  0.00000000E+00  0.00000000E+00
  0.00000000E+00  0.00000000E+00  0.00000000E+00
  0.00000000E+00  0.00000000E+00  0.00000000E+00
  0.00000000E+00  0.00000000E+00  0.00000000E+00
  0.00000000E+00  0.00000000E+00  0.00000000E+00
  0.00000000E+00  0.00000000E+00  0.00000000E+00
  0.00000000E+00  0.00000000E+00  0.00000000E+00
  0.00000000E+00  0.00000000E+00  0.00000000E+00
  0.00000000E+00  0.00000000E+00  0.00000000E+00
  0.00000000E+00  0.00000000E+00  0.00000000E+00
  0.00000000E+00  0.00000000E+00  0.00000000E+00
  0.00000000E+00  0.00000000E+00  0.00000000E+00
  0.00000000E+00  0.00000000E+00  0.00000000E+00
  0.00000000E+00  0.00000000E+00  0.00000000E+00
  0.00000000E+00  0.00000000E+00  0.00000000E+00
  0.00000000E+00  0.00000000E+00  0.00000000E+00
  0.00000000E+00  0.00000000E+00  0.00000000E+00
  0.00000000E+00  0.00000000E+00  0.00000000E+00
  0.00000000E+00  0.00000000E+00  0.00000000E+00
  0.00000000E+00  0.00000000E+00  0.00000000E+00
  0.00000000E+00  0.00000000E+00  0.00000000E+00
  0.00000000E+00  0.00000000E+00  0.00000000E+00
  0.00000000E+00  0.00000000E+00  0.00000000E+00
  0.00000000E+00  0.00000000E+00  0.00000000E+00
  0.00000000E+00  0.00000000E+00  0.00000000E+00
  0.00000000E+00  0.00000000E+00  0.00000000E+00
  0.00000000E+00  0.00000000E+00  0.00000000E+00
  0.00000000E+00  0.00000000E+00  0.00000000E+00
  0.00000000E+00  0.00000000E+00  0.00000000E+00
  0.00000000E+00  0.00000000E+00  0.00000000E+00
  0.00000000E+00  0.00000000E+00  0.00000000E+00
  0.00000000E+00  0.00000000E+00  0.00000000E+00
  0.00000000E+00  0.00000000E+00  0.00000000E+00
  0.00000000E+00  0.00000000E+00  0.00000000E+00
  0.00000000E+00  0.00000000E+00  0.00000000E+00
  0.00000000E+00  0.00000000E+00  0.00000000E+00
  0.00000000E+00  0.00000000E+00  0.00000000E+00
  0.00000000E+00  0.00000000E+00  0.00000000E+00
  0.00000000E+00  0.00000000E+00  0.00000000E+00
  0.00000000E+00  0.00000000E+00  0.00000000E+00
  0.00000000E+00  0.00000000E+00  0.00000000E+00
  0.00000000E+00  0.00000000E+00  0.00000000E+00
  0.00000000E+00  0.00000000E+00  0.00000000E+00
  0.00000000E+00  0.00000000E+00  0.00000000E+00
  0.00000000E+00  0.00000000E+00  0.00000000E+00
  0.00000000E+00  0.00000000E+00  0.00000000E+00
  0.00000000E+00  0.00000000E+00  0.00000000E+00
  0.00000000E+00  0.00000000E+00  0.00000000E+00
  0.00000000E+00  0.00000000E+00  0.00000000E+00
  0.00000000E+00  0.00000000E+00  0.00000000E+00
  0.00000000E+00  0.00000000E+00  0.00000000E+00
  0.00000000E+00  0.00000000E+00  0.00000000E+00
  0.00000000E+00  0.00000000E+00  0.00000000E+00
  0.00000000E+00  0.00000000E+00  0.00000000E+00
  0.00000000E+00  0.00000000E+00  0.00000000E+00
  0.00000000E+00  0.00000000E+00  0.00000000E+00
  0.00000000E+00  0.00000000E+00  0.00000000E+00
  0.00000000E+00  0.00000000E+00  0.00000000E+00
  0.00000000E+00  0.00000000E+00  0.00000000E+00
  0.00000000E+00  0.00000000E+00  0.00000000E+00
  0.00000000E+00  0.00000000E+00  0.00000000E+00
  0.00000000E+00  0.00000000E+00  0.00000000E+00
  0.00000000E+00  0.00000000E+00  0.00000000E+00
  0.00000000E+00  0.00000000E+00  0.00000000E+00
  0.00000000E+00  0.00000000E+00  0.00000000E+00
  0.00000000E+00  0.00000000E+00  0.00000000E+00
  0.00000000E+00  0.00000000E+00  0.00000000E+00
  0.00000000E+00  0.00000000E+00  0.00000000E+00
  0.00000000E+00  0.00000000E+00  0.00000000E+00
  0.00000000E+00  0.00000000E+00  0.00000000E+00
  0.00000000E+00  0.00000000E+00  0.00000000E+00
  0.00000000E+00  0.00000000E+00  0.00000000E+00
  0.00000000E+00  0.00000000E+00  0.00000000E+00
  0.00000000E+00  0.00000000E+00  0.00000000E+00
  0.00000000E+00  0.00000000E+00  0.00000000E+00
  0.00000000E+00  0.00000000E+00  0.00000000E+00
  0.00000000E+00  0.00000000E+00  0.00000000E+00
  0.00000000E+00  0.00000000E+00  0.00000000E+00
  0.00000000E+00  0.00000000E+00  0.00000000E+00
  0.00000000E+00  0.00000000E+00  0.00000000E+00
  0.00000000E+00  0.00000000E+00  0.00000000E+00
  0.00000000E+00  0.00000000E+00  0.00000000E+00
  0.00000000E+00  0.00000000E+00  0.00000000E+00
  0.00000000E+00  0.00000000E+00  0.00000000E+00
  0.00000000E+00  0.00000000E+00  0.00000000E+00
  0.00000000E+00  0.00000000E+00  0.00000000E+00
  0.00000000E+00  0.00000000E+00  0.00000000E+00
  0.00000000E+00  0.00000000E+00  0.00000000E+00
  0.00000000E+00  0.00000000E+00  0.00000000E+00
  0.00000000E+00  0.00000000E+00  0.00000000E+00
  0.00000000E+00  0.00000000E+00  0.00000000E+00
  0.00000000E+00  0.00000000E+00  0.00000000E+00
  0.00000000E+00  0.00000000E+00  0.00000000E+00
  0.00000000E+00  0.00000000E+00  0.00000000E+00
  0.00000000E+00  0.00000000E+00  0.00000000E+00
  0.00000000E+00  0.00000000E+00  0.00000000E+00
  0.00000000E+00  0.00000000E+00  0.00000000E+00
  0.00000000E+00  0.00000000E+00  0.00000000E+00
  0.00000000E+00  0.00000000E+00  0.00000000E+00
  0.00000000E+00  0.00000000E+00  0.00000000E+00
  0.00000000E+00  0.00000000E+00  0.00000000E+00
  0.00000000E+00  0.00000000E+00  0.00000000E+00
  0.00000000E+00  0.00000000E+00  0.00000000E+00
  0.00000000E+00  0.00000000E+00  0.00000000E+00
  0.00000000E+00  0.00000000E+00  0.00000000E+00
  0.00000000E+00  0.00000000E+00  0.00000000E+00
  0.00000000E+00  0.00000000E+00  0.00000000E+00
  0.00000000E+00  0.00000000E+00  0.00000000E+00
  0.00000000E+00  0.00000000E+00  0.00000000E+00
  0.00000000E+00  0.00000000E+00  0.00000000E+00
  0.00000000E+00  0.00000000E+00  0.00000000E+00
  0.00000000E+00  0.00000000E+00  0.00000000E+00
  0.00000000E+00  0.00000000E+00  0.00000000E+00
  0.00000000E+00  0.00000000E+00  0.00000000E+00
  0.00000000E+00  0.00000000E+00  0.00000000E+00
  0.00000000E+00  0.00000000E+00  0.00000000E+00
  0.00000000E+00  0.00000000E+00  0.00000000E+00
  0.00000000E+00  0.00000000E+00  0.00000000E+00
  0.00000000E+00  0.00000000E+00  0.00000000E+00
  0.00000000E+00  0.00000000E+00  0.00000000E+00
  0.00000000E+00  0.00000000E+00  0.00000000E+00
  0.00000000E+00  0.00000000E+00  0.00000000E+00
  0.00000000E+00  0.00000000E+00  0.00000000E+00
  0.00000000E+00  0.00000000E+00  0.00000000E+00
  0.00000000E+00  0.00000000E+00  0.00000000E+00