Li95 Ta33 O128                          
   1.00000000000000     
    11.3805060000000005    0.0067560000000000   -3.8448400000000000
     1.3117719999999999   11.3046539999999993    3.8448410000000002
    -0.0280210000000000    0.0314430000000000   18.5912410000000001
   Li   Ta   O 
    95    33   128
Direct
  0.2838914731857116  0.0964246725374451  0.4427980351849996
  0.2836296418142155  0.0976489548815280  0.9426593937654459
  0.2835498232930291  0.5986035488746992  0.9425559972337041
  0.7837005283348972  0.0952337338767677  0.4420902996710225
  0.7838439618101418  0.0974346886023412  0.9427255827679630
  0.7844158792839835  0.5996126681895575  0.4435299052694717
  0.7841662498862618  0.5997295833424374  0.9426156054342911
  0.0977641253875703  0.2797900026392739  0.3057990626751277
  0.0981807581813001  0.2823431292399619  0.8090275915937752
  0.0917409379380274  0.7925760518836995  0.3007198772810824
  0.0987929484174046  0.7838484922787572  0.8085599503758729
  0.5957591443803949  0.2828531069446072  0.3060895235389651
  0.6016316981045833  0.2801000312463771  0.8112350162897783
  0.5951517694488757  0.7883607654397977  0.3026883210848155
  0.5986861961430989  0.7852076054439721  0.8085146634983360
  0.2150732392045640  0.4022346598540167  0.0548332892937538
  0.2165550772784144  0.3900229683514027  0.5652193698456500
  0.2153794047899993  0.9033756697180380  0.0548785182933074
  0.2166492776278943  0.9054628706903785  0.5599441789874717
  0.7127974995589597  0.4006503567956585  0.0533581203477169
  0.7225411850550145  0.3953865340279776  0.5618309527888030
  0.7152322026666837  0.9034425961113683  0.0552641791882209
  0.7177098609603974  0.9042870177559337  0.5591881782822696
  0.4013821671117697  0.2161397556392615  0.1906724577414494
  0.4009740038212897  0.2119499374983747  0.6962022798610761
  0.4003219194509171  0.7194472456861689  0.1891469574206255
  0.4022024389548093  0.7171048009355161  0.6951527271131539
  0.9002427783659499  0.2148181481388960  0.1903152693526380
  0.9048974100264715  0.2124995655671924  0.6966056291513993
  0.8982044648969421  0.7205298143316483  0.1880372751288633
  0.9045560082103776  0.7167912727190497  0.6947570348963126
  0.1792889046435988  0.2183802538576671  0.1862019263299644
  0.1768069340965468  0.2143340721648670  0.6886780616360113
  0.1791009784966278  0.7242987535825591  0.1837990628144794
  0.1756264095873092  0.7232712716749603  0.6891222830491870
  0.6753971092546820  0.2172200345199968  0.1863362674960669
  0.6863923939461571  0.2126507235254351  0.6904903445920567
  0.6772369592797034  0.7220096901017214  0.1861820752148517
  0.6817880380389596  0.7226325738967958  0.6889458639767838
  0.2190442035207170  0.1776632124868485  0.0614536895565863
  0.2189178563377467  0.1714162327980802  0.5628081112163841
  0.2201220311301455  0.6785026936273724  0.0616822709236899
  0.2177156474047308  0.6863165105750895  0.5674667206452284
  0.7184546402620313  0.1766275141140810  0.0618264720105586
  0.7234144786976273  0.1708195700543698  0.5622591982537415
  0.7186020245005764  0.6799592148164706  0.0614275506604187
  0.7237590901297040  0.6846172604988681  0.5651374577644859
  0.3232291273293910  0.2769900554737461  0.3119521871440512
  0.3204679805028974  0.2781158236643648  0.8136492944947236
  0.3342749604840449  0.7988314565716976  0.3103977290400550
  0.3216016697325088  0.7813508397253344  0.8131432626642550
  0.8187722356175655  0.2765611217968598  0.3123735391141551
  0.8234440864427910  0.2797264342609722  0.8131261952663138
  0.8165920291250970  0.7870054270715201  0.3102512680638085
  0.8240510681321283  0.7824315979819119  0.8132552115672453
  0.2817659516309519  0.3141813128552826  0.4381625454341602
  0.2798509051136833  0.3214285635530629  0.9372734467860653
  0.2800210572845714  0.8588238238244443  0.4381444798055512
  0.2805979495159008  0.8226100115506512  0.9374739568673363
  0.7807911093704547  0.3155712658244667  0.4371563404006693
  0.7801790128492954  0.3213826997923732  0.9372494170137884
  0.7801231189371691  0.8328428198000992  0.4374901751195210
  0.7804790813683553  0.8234531481645035  0.9372337060978637
  0.0274689821655940  0.3384427957273246  0.4356679810531858
  0.0284386712958238  0.3466522743432279  0.9311936270142738
  0.0244689432086176  0.8552559982117103  0.4306020887045392
  0.0297018720551492  0.8474581222049764  0.9322296690932248
  0.5313638052380156  0.3407219430628530  0.4296932761051977
  0.5281835322446042  0.3461263558519363  0.9329838298887267
  0.5322229107671674  0.8531140649495867  0.4335359614487473
  0.5290970564912172  0.8482934485158182  0.9316034163332816
  0.3459138057585776  0.0327261914050823  0.3147253925773938
  0.3480219678853231  0.0274346427812944  0.8195058039912979
  0.3485154321299007  0.5284197257316379  0.3122625285110701
  0.3464914370638041  0.5296077368394307  0.8211359131790630
  0.8451329010348374  0.0306726300776106  0.3155525632081506
  0.8487686743698006  0.0268857702678247  0.8196489773184723
  0.8428545138823651  0.5299148624899601  0.3135124318569211
  0.8486311675066744  0.5281505213536590  0.8192362500888635
  0.4696177972115123  0.1533476080387146  0.0659448236325773
  0.4714259816170738  0.1461274167995583  0.5688338132066946
  0.4695184811916633  0.6541944021508641  0.0659854437448644
  0.4853496978263152  0.6534656484227099  0.5766052219513469
  0.9696152304911578  0.1517890728074676  0.0666665361126846
  0.9723381115620811  0.1501623493315591  0.5684329627315634
  0.9699504346908725  0.6556556678032166  0.0641457920568840
  0.9728404387358296  0.6536034734375846  0.5720494896720041
  0.1522440204356101  0.4716118296008389  0.1776690086960571
  0.1525514710829015  0.4711084712252429  0.6839197706303253
  0.1514066678473469  0.9731010241052545  0.1791606871369780
  0.1535915996925041  0.9703624834403897  0.6839259038739200
  0.6495901554019099  0.4715858053873490  0.1792990349602732
  0.6553558283089913  0.4684345223121866  0.6867323386209279
  0.6506642124536910  0.9728076956291218  0.1798672829835155
  0.6549169659377085  0.9701367723596519  0.6843505794643363
  0.2827195809638496  0.6002427176595404  0.4423620527864500
  0.3881640863742390  0.4679364654742812  0.1862484536641844
  0.3904357947394956  0.4682210450455386  0.6931520475432293
  0.3885393290724082  0.9704372466046678  0.1852807061060702
  0.3901067488249055  0.9689093800321515  0.6890442429315584
  0.8848135335100338  0.4673022666542508  0.1830459253159944
  0.8885289371777745  0.4702555628071607  0.6881669669049018
  0.8880691341307028  0.9686856660690779  0.1863974610003396
  0.8914462734649788  0.9687279219687710  0.6887090196912240
  0.4683878912797539  0.3896146975322026  0.0616322348843852
  0.4764743664321074  0.3798062305161878  0.5681785830838777
  0.4693452155871540  0.8894969704551556  0.0615083112734496
  0.4706887773840052  0.8893553745413669  0.5648916213452324
  0.9694707367482991  0.3886228103709826  0.0609932476782049
  0.9700737196913352  0.3864285926898035  0.5664082456213393
  0.9690917401290164  0.8896189646784691  0.0615376469762552
  0.9692218051535590  0.8907411835641170  0.5630889383315676
  0.1083277043144619  0.0330313653252503  0.3096693391153096
  0.1114443936173970  0.0305064777806763  0.8132971288386841
  0.1003416255638427  0.5249271295446221  0.3061901462059851
  0.1104397592707755  0.5306447395250160  0.8128974321378237
  0.6082740605772301  0.0313137483214021  0.3111795711269565
  0.6111257780557509  0.0313319065574618  0.8127194094640160
  0.6087719282280943  0.5321068721138928  0.3086896617636654
  0.6120215857577378  0.5329265140062560  0.8136069988174555
  0.0308522316284083  0.1090984565099191  0.4368429281331458
  0.0307184121330764  0.1106369580014075  0.9374989941956571
  0.0175166103278244  0.6061198108584733  0.4378336498005808
  0.0310015819428102  0.6109241627321182  0.9372161214471078
  0.5306876723001892  0.1082739444973129  0.4373665543321295
  0.5305485246744794  0.1106724462643101  0.9373841370829155
  0.5460110391049895  0.6046017532002423  0.4393009597127246
  0.5307503392683373  0.6112932715810118  0.9378236400499773
  0.3539149506042705  0.0212441069011646  0.0676884267323103
  0.3556535083512316  0.0204811515851944  0.5692030394719225
  0.3539654488544386  0.5220655675068002  0.0687281530309107
  0.3492541830340272  0.5260208642883555  0.5617151378373322
  0.8543404205038598  0.0202131443055222  0.0685228154091888
  0.8556703395311516  0.0216299319984259  0.5686295853239685
  0.8518360268325651  0.5222492143116995  0.0678365403239169
  0.8559697839611928  0.5197802558700744  0.5680620048291303
  0.0192928992963104  0.3583263357684814  0.1810501327373544
  0.0216151088466177  0.3524351479556316  0.6818073676199674
  0.0213204053288436  0.8535805104683831  0.1814778105179897
  0.0225279578965214  0.8546240632275470  0.6815649454029611
  0.5201705154422882  0.3564904965627136  0.1813606758030346
  0.5182909222439775  0.3564611340254515  0.6809033907940645
  0.5206563319265243  0.8551469706676329  0.1809069161307306
  0.5220412494431059  0.8536744237223175  0.6826174161708636
  0.1598529854269017  0.4840132089994356  0.4350290289999919
  0.1442265013222936  0.4781943364191150  0.9311747935547103
  0.1461887850231278  0.9779445020484374  0.4306002463534355
  0.1452220229054859  0.9788290293866524  0.9315912938336339
  0.6437935347374406  0.4787875221727447  0.4336791776879707
  0.6448344797345626  0.4783180183598503  0.9309979573579668
  0.6444425703711545  0.9777441813993093  0.4310887111118049
  0.6452412190517336  0.9793720920826274  0.9311434828852896
  0.4773862849173156  0.1442251256591760  0.3183422614253217
  0.4789523945773908  0.1457570583291457  0.8183418007731760
  0.4798328644874275  0.6444319463737500  0.3215008182661592
  0.4789921138546305  0.6437112239300404  0.8186229844209194
  0.9789462795529360  0.1447841683673161  0.3176209420134910
  0.9788302427554001  0.1446996185577305  0.8186986971897099
  0.9851928557247618  0.6427236704416188  0.3212545041662409
  0.9784833617347317  0.6443678018373831  0.8185675815621494
  0.2110780260652234  0.1520291124622588  0.3078041687183131
  0.2123027282523324  0.1510325749654839  0.8092134118430110
  0.2187196213964171  0.6457054450580983  0.3219257720210891
  0.2116897163743019  0.6506158659582368  0.8092426967775310
  0.7102616377158952  0.1507212999711030  0.3085946639339880
  0.7122903428184131  0.1517200630741371  0.8087593178104200
  0.7121929792194166  0.6504943217736994  0.3111827683447501
  0.7127742629804601  0.6514103023957460  0.8089775645608555
  0.1503410992425032  0.2120979796184059  0.4400622840675084
  0.1504745346769454  0.2123897864630422  0.9404098148716074
  0.1604650196094468  0.7040301034345546  0.4443450043908896
  0.1511137665371933  0.7116629247341635  0.9406986782913336
  0.6502329647454346  0.2106684047033980  0.4401266315857697
  0.6504266403561516  0.2126742538261084  0.9402679460018604
  0.6531317190339436  0.7136537460244199  0.4434049315247748
  0.6509888373209662  0.7121531820147879  0.9403213689363099
  0.2870763895389743  0.3490746494656989  0.1909428019629544
  0.2873469719940971  0.3502854672069944  0.6881280194874861
  0.2881555941711795  0.8486969506890034  0.1913929607336087
  0.2881678947503801  0.8489655558502349  0.6909230323751459
  0.7862001773245879  0.3483731088054185  0.1914354959358562
  0.7873257139219518  0.3491903968237509  0.6895478430211242
  0.7877246491566581  0.8478300883329766  0.1912762947097448
  0.7891179371387835  0.8491545248645167  0.6908094932359106
  0.3484208682349674  0.2883808803046577  0.0593297360091896
  0.3504117585110791  0.2875705252799037  0.5590327973687010
  0.3493023366454509  0.7876372678824168  0.0594618815578443
  0.3496420575381762  0.7881639692457583  0.5590281150816097
  0.8485987979984984  0.2881396670462308  0.0597157075799046
  0.8487921567825722  0.2884475011854875  0.5569883081500748
  0.8493551598609272  0.7872606283182222  0.0595112875828576
  0.8494662389477270  0.7889412720853670  0.5592896030433252
  0.0896924940343737  0.2842110153983270  0.0660543487270786
  0.0891206454196976  0.2857769692281806  0.5643758847874452
  0.0899865572843908  0.7849200167398322  0.0655544458056880
  0.0890127666873184  0.7860989472070798  0.5650620556980641
  0.5889885165932540  0.2850128056424595  0.0657543512230845
  0.5923995343226167  0.2820429938177256  0.5653198435047457
  0.5900336109154480  0.7847602911728231  0.0657359498192136
  0.5898359244299556  0.7840594775310663  0.5661833069574627
  0.2846997098552109  0.0899567550611309  0.1835709444126365
  0.2846582056711497  0.0896509353662012  0.6840255349895017
  0.2863399925512624  0.5892301499422885  0.1861120891217141
  0.2835433414057533  0.5902374821278329  0.6829578292495455
  0.7848059231810751  0.0889588087745565  0.1842719091894551
  0.7862632746421312  0.0895890079237773  0.6839248756628109
  0.7883177784853288  0.5891040572912374  0.1857584602678415
  0.7833039514530782  0.5899656299257074  0.6834383733051581
  0.4110868668650625  0.2143816927341149  0.4339789125637310
  0.4099872706577727  0.2148028597507832  0.9342495038847503
  0.4037137821306587  0.7072991593974791  0.4345304090634983
  0.4102068478473200  0.7150838920503944  0.9341390749958123
  0.9106918151599075  0.2148268596514029  0.4328655806459523
  0.9100593182594636  0.2148197880111056  0.9342474659130673
  0.9094519725816994  0.7189744361321146  0.4333662405277394
  0.9103435980286250  0.7145186296054433  0.9343858731587886
  0.2152699026097409  0.4108963670525370  0.3165674777683876
  0.2140327077424331  0.4104627757179742  0.8150426744885308
  0.2153384169405896  0.9104352839745289  0.3169418142850162
  0.2152043473876333  0.9101060649385175  0.8160318865460994
  0.7154819143327700  0.4107564452919448  0.3170761673960030
  0.7122825081386353  0.4104416371073540  0.8149601514857494
  0.7132619387580021  0.9103212919454364  0.3157132009394132
  0.7150920743832785  0.9108739248227664  0.8155552555051315
  0.4746356649182744  0.4181919654822295  0.3066259660191761
  0.4694816350099913  0.4153619869546006  0.8070027524271097
  0.4718700395693531  0.9139733436822155  0.3063317147119946
  0.4744545996448934  0.9161292275537463  0.8068087026754753
  0.9767367887440130  0.4182019687546230  0.3075647809621316
  0.9723767103390770  0.4158054716950161  0.8057632098986218
  0.9748649266023079  0.9146088421240037  0.3061433249650918
  0.9746702590787848  0.9154059592569510  0.8067597379229525
  0.4052736630510196  0.4786381889651068  0.4443549154595487
  0.4156531265365544  0.4743795731180072  0.9437115639411360
  0.4144738762382119  0.9718459576518796  0.4441394883465222
  0.4162660260882092  0.9738902807282201  0.9432957987810013
  0.9181490335126412  0.4765608358961160  0.4416780270957901
  0.9151862691849360  0.4734881078935658  0.9435917941030496
  0.9156802305645968  0.9740293774775211  0.4430843023585780
  0.9158169596561478  0.9736077743372817  0.9434545808667210
  0.0248725137645494  0.0838462801863713  0.1922945228015962
  0.0267181380428951  0.0841494488214281  0.6937967389696880
  0.0301899852306562  0.5872301938825260  0.1925231762123332
  0.0248824783176289  0.5827126943266592  0.6933337106045983
  0.5246005097767181  0.0839046354835915  0.1930454827870847
  0.5256772856301382  0.0841456350226792  0.6934643587010711
  0.5274377862867823  0.5853749087529039  0.1932617484319579
  0.5238974960056382  0.5805162022021833  0.6936294759943991
  0.0833522524915793  0.0256252908785726  0.0562835514607514
  0.0846611173907732  0.0264641818573494  0.5557093606400798
  0.0825886515961116  0.5254134924592577  0.0561846134537092
  0.0829366731379366  0.5264429103441088  0.5552343159697628
  0.5836560758356697  0.0260125244251768  0.0561740422460488
  0.5842188107160027  0.0246609445455448  0.5563666113824581
  0.5838251480106251  0.5258460890167669  0.0562861209501193
  0.5796818117690776  0.5233593978983961  0.5558644441301652
 
  0.00000000E+00  0.00000000E+00  0.00000000E+00
  0.00000000E+00  0.00000000E+00  0.00000000E+00
  0.00000000E+00  0.00000000E+00  0.00000000E+00
  0.00000000E+00  0.00000000E+00  0.00000000E+00
  0.00000000E+00  0.00000000E+00  0.00000000E+00
  0.00000000E+00  0.00000000E+00  0.00000000E+00
  0.00000000E+00  0.00000000E+00  0.00000000E+00
  0.00000000E+00  0.00000000E+00  0.00000000E+00
  0.00000000E+00  0.00000000E+00  0.00000000E+00
  0.00000000E+00  0.00000000E+00  0.00000000E+00
  0.00000000E+00  0.00000000E+00  0.00000000E+00
  0.00000000E+00  0.00000000E+00  0.00000000E+00
  0.00000000E+00  0.00000000E+00  0.00000000E+00
  0.00000000E+00  0.00000000E+00  0.00000000E+00
  0.00000000E+00  0.00000000E+00  0.00000000E+00
  0.00000000E+00  0.00000000E+00  0.00000000E+00
  0.00000000E+00  0.00000000E+00  0.00000000E+00
  0.00000000E+00  0.00000000E+00  0.00000000E+00
  0.00000000E+00  0.00000000E+00  0.00000000E+00
  0.00000000E+00  0.00000000E+00  0.00000000E+00
  0.00000000E+00  0.00000000E+00  0.00000000E+00
  0.00000000E+00  0.00000000E+00  0.00000000E+00
  0.00000000E+00  0.00000000E+00  0.00000000E+00
  0.00000000E+00  0.00000000E+00  0.00000000E+00
  0.00000000E+00  0.00000000E+00  0.00000000E+00
  0.00000000E+00  0.00000000E+00  0.00000000E+00
  0.00000000E+00  0.00000000E+00  0.00000000E+00
  0.00000000E+00  0.00000000E+00  0.00000000E+00
  0.00000000E+00  0.00000000E+00  0.00000000E+00
  0.00000000E+00  0.00000000E+00  0.00000000E+00
  0.00000000E+00  0.00000000E+00  0.00000000E+00
  0.00000000E+00  0.00000000E+00  0.00000000E+00
  0.00000000E+00  0.00000000E+00  0.00000000E+00
  0.00000000E+00  0.00000000E+00  0.00000000E+00
  0.00000000E+00  0.00000000E+00  0.00000000E+00
  0.00000000E+00  0.00000000E+00  0.00000000E+00
  0.00000000E+00  0.00000000E+00  0.00000000E+00
  0.00000000E+00  0.00000000E+00  0.00000000E+00
  0.00000000E+00  0.00000000E+00  0.00000000E+00
  0.00000000E+00  0.00000000E+00  0.00000000E+00
  0.00000000E+00  0.00000000E+00  0.00000000E+00
  0.00000000E+00  0.00000000E+00  0.00000000E+00
  0.00000000E+00  0.00000000E+00  0.00000000E+00
  0.00000000E+00  0.00000000E+00  0.00000000E+00
  0.00000000E+00  0.00000000E+00  0.00000000E+00
  0.00000000E+00  0.00000000E+00  0.00000000E+00
  0.00000000E+00  0.00000000E+00  0.00000000E+00
  0.00000000E+00  0.00000000E+00  0.00000000E+00
  0.00000000E+00  0.00000000E+00  0.00000000E+00
  0.00000000E+00  0.00000000E+00  0.00000000E+00
  0.00000000E+00  0.00000000E+00  0.00000000E+00
  0.00000000E+00  0.00000000E+00  0.00000000E+00
  0.00000000E+00  0.00000000E+00  0.00000000E+00
  0.00000000E+00  0.00000000E+00  0.00000000E+00
  0.00000000E+00  0.00000000E+00  0.00000000E+00
  0.00000000E+00  0.00000000E+00  0.00000000E+00
  0.00000000E+00  0.00000000E+00  0.00000000E+00
  0.00000000E+00  0.00000000E+00  0.00000000E+00
  0.00000000E+00  0.00000000E+00  0.00000000E+00
  0.00000000E+00  0.00000000E+00  0.00000000E+00
  0.00000000E+00  0.00000000E+00  0.00000000E+00
  0.00000000E+00  0.00000000E+00  0.00000000E+00
  0.00000000E+00  0.00000000E+00  0.00000000E+00
  0.00000000E+00  0.00000000E+00  0.00000000E+00
  0.00000000E+00  0.00000000E+00  0.00000000E+00
  0.00000000E+00  0.00000000E+00  0.00000000E+00
  0.00000000E+00  0.00000000E+00  0.00000000E+00
  0.00000000E+00  0.00000000E+00  0.00000000E+00
  0.00000000E+00  0.00000000E+00  0.00000000E+00
  0.00000000E+00  0.00000000E+00  0.00000000E+00
  0.00000000E+00  0.00000000E+00  0.00000000E+00
  0.00000000E+00  0.00000000E+00  0.00000000E+00
  0.00000000E+00  0.00000000E+00  0.00000000E+00
  0.00000000E+00  0.00000000E+00  0.00000000E+00
  0.00000000E+00  0.00000000E+00  0.00000000E+00
  0.00000000E+00  0.00000000E+00  0.00000000E+00
  0.00000000E+00  0.00000000E+00  0.00000000E+00
  0.00000000E+00  0.00000000E+00  0.00000000E+00
  0.00000000E+00  0.00000000E+00  0.00000000E+00
  0.00000000E+00  0.00000000E+00  0.00000000E+00
  0.00000000E+00  0.00000000E+00  0.00000000E+00
  0.00000000E+00  0.00000000E+00  0.00000000E+00
  0.00000000E+00  0.00000000E+00  0.00000000E+00
  0.00000000E+00  0.00000000E+00  0.00000000E+00
  0.00000000E+00  0.00000000E+00  0.00000000E+00
  0.00000000E+00  0.00000000E+00  0.00000000E+00
  0.00000000E+00  0.00000000E+00  0.00000000E+00
  0.00000000E+00  0.00000000E+00  0.00000000E+00
  0.00000000E+00  0.00000000E+00  0.00000000E+00
  0.00000000E+00  0.00000000E+00  0.00000000E+00
  0.00000000E+00  0.00000000E+00  0.00000000E+00
  0.00000000E+00  0.00000000E+00  0.00000000E+00
  0.00000000E+00  0.00000000E+00  0.00000000E+00
  0.00000000E+00  0.00000000E+00  0.00000000E+00
  0.00000000E+00  0.00000000E+00  0.00000000E+00
  0.00000000E+00  0.00000000E+00  0.00000000E+00
  0.00000000E+00  0.00000000E+00  0.00000000E+00
  0.00000000E+00  0.00000000E+00  0.00000000E+00
  0.00000000E+00  0.00000000E+00  0.00000000E+00
  0.00000000E+00  0.00000000E+00  0.00000000E+00
  0.00000000E+00  0.00000000E+00  0.00000000E+00
  0.00000000E+00  0.00000000E+00  0.00000000E+00
  0.00000000E+00  0.00000000E+00  0.00000000E+00
  0.00000000E+00  0.00000000E+00  0.00000000E+00
  0.00000000E+00  0.00000000E+00  0.00000000E+00
  0.00000000E+00  0.00000000E+00  0.00000000E+00
  0.00000000E+00  0.00000000E+00  0.00000000E+00
  0.00000000E+00  0.00000000E+00  0.00000000E+00
  0.00000000E+00  0.00000000E+00  0.00000000E+00
  0.00000000E+00  0.00000000E+00  0.00000000E+00
  0.00000000E+00  0.00000000E+00  0.00000000E+00
  0.00000000E+00  0.00000000E+00  0.00000000E+00
  0.00000000E+00  0.00000000E+00  0.00000000E+00
  0.00000000E+00  0.00000000E+00  0.00000000E+00
  0.00000000E+00  0.00000000E+00  0.00000000E+00
  0.00000000E+00  0.00000000E+00  0.00000000E+00
  0.00000000E+00  0.00000000E+00  0.00000000E+00
  0.00000000E+00  0.00000000E+00  0.00000000E+00
  0.00000000E+00  0.00000000E+00  0.00000000E+00
  0.00000000E+00  0.00000000E+00  0.00000000E+00
  0.00000000E+00  0.00000000E+00  0.00000000E+00
  0.00000000E+00  0.00000000E+00  0.00000000E+00
  0.00000000E+00  0.00000000E+00  0.00000000E+00
  0.00000000E+00  0.00000000E+00  0.00000000E+00
  0.00000000E+00  0.00000000E+00  0.00000000E+00
  0.00000000E+00  0.00000000E+00  0.00000000E+00
  0.00000000E+00  0.00000000E+00  0.00000000E+00
  0.00000000E+00  0.00000000E+00  0.00000000E+00
  0.00000000E+00  0.00000000E+00  0.00000000E+00
  0.00000000E+00  0.00000000E+00  0.00000000E+00
  0.00000000E+00  0.00000000E+00  0.00000000E+00
  0.00000000E+00  0.00000000E+00  0.00000000E+00
  0.00000000E+00  0.00000000E+00  0.00000000E+00
  0.00000000E+00  0.00000000E+00  0.00000000E+00
  0.00000000E+00  0.00000000E+00  0.00000000E+00
  0.00000000E+00  0.00000000E+00  0.00000000E+00
  0.00000000E+00  0.00000000E+00  0.00000000E+00
  0.00000000E+00  0.00000000E+00  0.00000000E+00
  0.00000000E+00  0.00000000E+00  0.00000000E+00
  0.00000000E+00  0.00000000E+00  0.00000000E+00
  0.00000000E+00  0.00000000E+00  0.00000000E+00
  0.00000000E+00  0.00000000E+00  0.00000000E+00
  0.00000000E+00  0.00000000E+00  0.00000000E+00
  0.00000000E+00  0.00000000E+00  0.00000000E+00
  0.00000000E+00  0.00000000E+00  0.00000000E+00
  0.00000000E+00  0.00000000E+00  0.00000000E+00
  0.00000000E+00  0.00000000E+00  0.00000000E+00
  0.00000000E+00  0.00000000E+00  0.00000000E+00
  0.00000000E+00  0.00000000E+00  0.00000000E+00
  0.00000000E+00  0.00000000E+00  0.00000000E+00
  0.00000000E+00  0.00000000E+00  0.00000000E+00
  0.00000000E+00  0.00000000E+00  0.00000000E+00
  0.00000000E+00  0.00000000E+00  0.00000000E+00
  0.00000000E+00  0.00000000E+00  0.00000000E+00
  0.00000000E+00  0.00000000E+00  0.00000000E+00
  0.00000000E+00  0.00000000E+00  0.00000000E+00
  0.00000000E+00  0.00000000E+00  0.00000000E+00
  0.00000000E+00  0.00000000E+00  0.00000000E+00
  0.00000000E+00  0.00000000E+00  0.00000000E+00
  0.00000000E+00  0.00000000E+00  0.00000000E+00
  0.00000000E+00  0.00000000E+00  0.00000000E+00
  0.00000000E+00  0.00000000E+00  0.00000000E+00
  0.00000000E+00  0.00000000E+00  0.00000000E+00
  0.00000000E+00  0.00000000E+00  0.00000000E+00
  0.00000000E+00  0.00000000E+00  0.00000000E+00
  0.00000000E+00  0.00000000E+00  0.00000000E+00
  0.00000000E+00  0.00000000E+00  0.00000000E+00
  0.00000000E+00  0.00000000E+00  0.00000000E+00
  0.00000000E+00  0.00000000E+00  0.00000000E+00
  0.00000000E+00  0.00000000E+00  0.00000000E+00
  0.00000000E+00  0.00000000E+00  0.00000000E+00
  0.00000000E+00  0.00000000E+00  0.00000000E+00
  0.00000000E+00  0.00000000E+00  0.00000000E+00
  0.00000000E+00  0.00000000E+00  0.00000000E+00
  0.00000000E+00  0.00000000E+00  0.00000000E+00
  0.00000000E+00  0.00000000E+00  0.00000000E+00
  0.00000000E+00  0.00000000E+00  0.00000000E+00
  0.00000000E+00  0.00000000E+00  0.00000000E+00
  0.00000000E+00  0.00000000E+00  0.00000000E+00
  0.00000000E+00  0.00000000E+00  0.00000000E+00
  0.00000000E+00  0.00000000E+00  0.00000000E+00
  0.00000000E+00  0.00000000E+00  0.00000000E+00
  0.00000000E+00  0.00000000E+00  0.00000000E+00
  0.00000000E+00  0.00000000E+00  0.00000000E+00
  0.00000000E+00  0.00000000E+00  0.00000000E+00
  0.00000000E+00  0.00000000E+00  0.00000000E+00
  0.00000000E+00  0.00000000E+00  0.00000000E+00
  0.00000000E+00  0.00000000E+00  0.00000000E+00
  0.00000000E+00  0.00000000E+00  0.00000000E+00
  0.00000000E+00  0.00000000E+00  0.00000000E+00
  0.00000000E+00  0.00000000E+00  0.00000000E+00
  0.00000000E+00  0.00000000E+00  0.00000000E+00
  0.00000000E+00  0.00000000E+00  0.00000000E+00
  0.00000000E+00  0.00000000E+00  0.00000000E+00
  0.00000000E+00  0.00000000E+00  0.00000000E+00
  0.00000000E+00  0.00000000E+00  0.00000000E+00
  0.00000000E+00  0.00000000E+00  0.00000000E+00
  0.00000000E+00  0.00000000E+00  0.00000000E+00
  0.00000000E+00  0.00000000E+00  0.00000000E+00
  0.00000000E+00  0.00000000E+00  0.00000000E+00
  0.00000000E+00  0.00000000E+00  0.00000000E+00
  0.00000000E+00  0.00000000E+00  0.00000000E+00
  0.00000000E+00  0.00000000E+00  0.00000000E+00
  0.00000000E+00  0.00000000E+00  0.00000000E+00
  0.00000000E+00  0.00000000E+00  0.00000000E+00
  0.00000000E+00  0.00000000E+00  0.00000000E+00
  0.00000000E+00  0.00000000E+00  0.00000000E+00
  0.00000000E+00  0.00000000E+00  0.00000000E+00
  0.00000000E+00  0.00000000E+00  0.00000000E+00
  0.00000000E+00  0.00000000E+00  0.00000000E+00
  0.00000000E+00  0.00000000E+00  0.00000000E+00
  0.00000000E+00  0.00000000E+00  0.00000000E+00
  0.00000000E+00  0.00000000E+00  0.00000000E+00
  0.00000000E+00  0.00000000E+00  0.00000000E+00
  0.00000000E+00  0.00000000E+00  0.00000000E+00
  0.00000000E+00  0.00000000E+00  0.00000000E+00
  0.00000000E+00  0.00000000E+00  0.00000000E+00
  0.00000000E+00  0.00000000E+00  0.00000000E+00
  0.00000000E+00  0.00000000E+00  0.00000000E+00
  0.00000000E+00  0.00000000E+00  0.00000000E+00
  0.00000000E+00  0.00000000E+00  0.00000000E+00
  0.00000000E+00  0.00000000E+00  0.00000000E+00
  0.00000000E+00  0.00000000E+00  0.00000000E+00
  0.00000000E+00  0.00000000E+00  0.00000000E+00
  0.00000000E+00  0.00000000E+00  0.00000000E+00
  0.00000000E+00  0.00000000E+00  0.00000000E+00
  0.00000000E+00  0.00000000E+00  0.00000000E+00
  0.00000000E+00  0.00000000E+00  0.00000000E+00
  0.00000000E+00  0.00000000E+00  0.00000000E+00
  0.00000000E+00  0.00000000E+00  0.00000000E+00
  0.00000000E+00  0.00000000E+00  0.00000000E+00
  0.00000000E+00  0.00000000E+00  0.00000000E+00
  0.00000000E+00  0.00000000E+00  0.00000000E+00
  0.00000000E+00  0.00000000E+00  0.00000000E+00
  0.00000000E+00  0.00000000E+00  0.00000000E+00
  0.00000000E+00  0.00000000E+00  0.00000000E+00
  0.00000000E+00  0.00000000E+00  0.00000000E+00
  0.00000000E+00  0.00000000E+00  0.00000000E+00
  0.00000000E+00  0.00000000E+00  0.00000000E+00
  0.00000000E+00  0.00000000E+00  0.00000000E+00
  0.00000000E+00  0.00000000E+00  0.00000000E+00
  0.00000000E+00  0.00000000E+00  0.00000000E+00
  0.00000000E+00  0.00000000E+00  0.00000000E+00
  0.00000000E+00  0.00000000E+00  0.00000000E+00
  0.00000000E+00  0.00000000E+00  0.00000000E+00
  0.00000000E+00  0.00000000E+00  0.00000000E+00
  0.00000000E+00  0.00000000E+00  0.00000000E+00
  0.00000000E+00  0.00000000E+00  0.00000000E+00
  0.00000000E+00  0.00000000E+00  0.00000000E+00
  0.00000000E+00  0.00000000E+00  0.00000000E+00
  0.00000000E+00  0.00000000E+00  0.00000000E+00
  0.00000000E+00  0.00000000E+00  0.00000000E+00
  0.00000000E+00  0.00000000E+00  0.00000000E+00
  0.00000000E+00  0.00000000E+00  0.00000000E+00
  0.00000000E+00  0.00000000E+00  0.00000000E+00
  0.00000000E+00  0.00000000E+00  0.00000000E+00
