Li63 Nb65 O192                          
   1.00000000000000     
    15.1469600000000000   -0.0012470000000000   -0.0011610000000000
     1.0576070000000000   15.1097420000000007   -0.0009680000000000
     1.0576360000000000    0.9859670000000000   15.0777149999999995
   Li   Nb   O 
    63    65   192
Direct
  0.2473278926842895  0.2496997350813359  0.2487611855416745
  0.2498081138431516  0.2504016172856822  0.7501851322469975
  0.2499863173960577  0.7499576619489972  0.2500916345016080
  0.2499856483982086  0.7505419276653242  0.7503825493263179
  0.7496959429763095  0.2536296051398423  0.2502830570922114
  0.7518457108436465  0.2506389497814894  0.7527051934871238
  0.7494674422406788  0.7495932667958982  0.2504100893243901
  0.7498853538179020  0.7504061999077507  0.7502105752373609
  0.0003648173286308  0.2503612766683645  0.0003430057024119
  0.9976593117720611  0.2502757987272020  0.4990921696532880
  0.9997327529869793  0.7501162465909275  0.9998992794275949
  0.0003247825140420  0.7504363226286799  0.5002362364065576
  0.5004443902418103  0.2496244380623409  0.9975796491212350
  0.5002357860245823  0.7501253226139823  0.0003421260516063
  0.5006893700275015  0.7483055988813234  0.5009181140244365
  0.2498366975428965  0.0002712188581881  0.9997719254076571
  0.2493988385716150  0.9989034691645671  0.4988354785693048
  0.2498412943852983  0.5005502740739729  0.0003779991852397
  0.2504588003233295  0.5003024535309422  0.5019818024376548
  0.7507400531123309  0.9994841623383692  0.9998430244977214
  0.7496463921662055  0.0001840959005506  0.4999354795085011
  0.7500610262145884  0.4999259231635094  0.0006009742303590
  0.7501748341056924  0.5001733530260850  0.5015118546468571
  0.9997443858373387  0.9999342407451479  0.2500446728361325
  0.0003330609691972  0.0005804973072330  0.7497929827221981
  0.9996234305871425  0.5006800485643765  0.2498020282043143
  0.0005585192854269  0.5006665088077256  0.7502553878953080
  0.4995930368147583  0.9978725297956998  0.2470411241347534
  0.5035501807940079  0.0013051326054594  0.7477423942002446
  0.5005725394746676  0.4985773786522785  0.2510151322317640
  0.5004695968038391  0.5016070198087093  0.7516486209314124
  0.0001683184956889  0.0000966124422845  0.0003923990189634
  0.9996772481189780  0.0001635960789415  0.5003502464420606
  0.0000524040647605  0.5003677545521654  0.0002602158164606
  0.9997237632487597  0.5005011434149651  0.5013236689454672
  0.5000245598368807  0.0011871698623551  0.9977051519811653
  0.5001572738148781  0.9990672126813109  0.4955738518033144
  0.5003011646027886  0.5005731568092884  0.0012148610758516
  0.5025284967067876  0.5032727287163112  0.5007858900901923
  0.2496453971339321  0.9995395930841866  0.2497612260260880
  0.2490150237741915  0.9991338030241295  0.7505914531388100
  0.2474576236375086  0.4999122062395145  0.2488227026216876
  0.2505859851940073  0.4995729211728275  0.7487975763233550
  0.7507527899688213  0.9975223712555206  0.2474325362595451
  0.7466611791501947  0.0007517075130465  0.7470171477157166
  0.7467838633270247  0.4956198147156385  0.2510200606321078
  0.7508666508032249  0.5011819013291472  0.7512305795695866
  0.9979158013751501  0.2498853691635219  0.2517503754747352
  0.0011745975606559  0.2500298986034295  0.7507664685575577
  0.0002147228862626  0.7499553835482686  0.2502751115959825
  0.0001408764196000  0.7504720297942171  0.7503824818536415
  0.4957905449481785  0.2499930988771766  0.2478918269398918
  0.4994503767228693  0.2531374143490339  0.7557067472055579
  0.5006605381107931  0.7488320936000648  0.2500264265844336
  0.5014480472057272  0.7501554411201852  0.7495734248519099
  0.2495502357466535  0.2500136801366963  0.9999082145156279
  0.2481506931740469  0.2485734516858997  0.4992869322746074
  0.2503064350108346  0.7502845146702910  0.0001419475585109
  0.2506637063941426  0.7493763323987181  0.5001550770647825
  0.7500376122195362  0.2517431006430400  0.9998178594229543
  0.7572689718023753  0.2499444159720383  0.5028074765013599
  0.7502356548496891  0.7499720217823054  0.0000583913231011
  0.7502075724403383  0.7504504135382462  0.5002854965793091
  0.5163942230678984  0.2565224121085947  0.5076887321351649
  0.1082597974921811  0.1088559548229142  0.1088094803618631
  0.1082649009440360  0.1089868150569941  0.6085260683541307
  0.1084631056146250  0.6088419002364134  0.1086391438980954
  0.1090387909545001  0.6092711495974186  0.6089833203485000
  0.6069700526367896  0.1109002638838774  0.0999640787737093
  0.6054704428195592  0.1130442447745565  0.5983542958596004
  0.6087995096064773  0.6081682222476417  0.1093022313368337
  0.6105581142257961  0.6084867838675621  0.6096954007686577
  0.3579895168200764  0.1083263170208610  0.3575559385742437
  0.3587383277145761  0.1091472942395342  0.8585895810613948
  0.3585715775355851  0.6082654045579829  0.3589025236595234
  0.3589179088529093  0.6092165289310145  0.8590454305963888
  0.8586976754710633  0.1082417429135987  0.3589933562013243
  0.8589269005532501  0.1087520221234897  0.8591357368744852
  0.8588202066009671  0.6084244328376585  0.3591152119189402
  0.8592023472182504  0.6093196543012880  0.8594402360208875
  0.1013233765161559  0.3573191877325073  0.3607105333637790
  0.1090159458388840  0.3590498830564428  0.8588582966716487
  0.1085576182398214  0.8584407690069256  0.3588458164910477
  0.1085756109451523  0.8588018030177693  0.8588152646830238
  0.5996992015605187  0.3521473469957286  0.3627390172806670
  0.6095685169031952  0.3611971621350705  0.8594487648566229
  0.6087805317487067  0.8568668960422698  0.3581465229806042
  0.6086639043770461  0.8593071652184463  0.8586179247605301
  0.3582398356512329  0.3588423649442163  0.1077650580761471
  0.3586589681562415  0.3563216906915088  0.6074573691891487
  0.3588148615283089  0.8585725611864490  0.1084994171149276
  0.3598708297946942  0.8559171240878385  0.6077983352543299
  0.8589343833642147  0.3586424182160926  0.1093152107257893
  0.8596289086467621  0.3595888574650914  0.6111941956437832
  0.8588372386331287  0.8581936767092984  0.1086613248892689
  0.8586041665576261  0.8590284531541243  0.6087774692130097
  0.3491019365219188  0.3599667261683948  0.3568274527035840
  0.3584945439655129  0.3593379662565965  0.8585469211705572
  0.3587703732801089  0.8581047810545641  0.3583997398090588
  0.3590470096023495  0.8593345709637887  0.8584433994514526
  0.8514080202707177  0.3615786175951641  0.3585628183439482
  0.8599162173041890  0.3594097557809590  0.8594420175999460
  0.8585746366548790  0.8582135824428576  0.3587558275459060
  0.8587257561647732  0.8594812470112743  0.8583626489823644
  0.1081428227435381  0.3590908830235122  0.1087256452493364
  0.1088391026242235  0.3592016053348104  0.6089576030593307
  0.1086177257043346  0.8586996236233730  0.1086869468809226
  0.1087447532451336  0.8589090304826144  0.6087495506071150
  0.6085584914461535  0.3589756637696695  0.1096540088764399
  0.6122923363643196  0.3596023500885082  0.6135496305336758
  0.6090220841236089  0.8582676616157272  0.1080153471713885
  0.6093412934073967  0.8593379929245302  0.6083595923477461
  0.3583052735631682  0.1086216411332117  0.1081593623463419
  0.3576293320341364  0.1035331900097134  0.6092608904952570
  0.3586103811949073  0.6085101905387091  0.1090145631606916
  0.3590353568799216  0.6064752499288062  0.6102026891728372
  0.8585505816855203  0.1090669672702873  0.1089827929896927
  0.8579718226364506  0.1088229533980822  0.6090575932631239
  0.8582438875274789  0.6086578820237563  0.1096449677407279
  0.8592826274003258  0.6097064682753697  0.6092467233716334
  0.1083464495531459  0.1083705420722794  0.3584805846315930
  0.1084673769294469  0.1089778965422212  0.8586010270079640
  0.1086796146062952  0.6086317544483961  0.3590974618560807
  0.1090578543125602  0.6089336853127634  0.8588523097152532
  0.6110864649512564  0.1060828527477327  0.3462342989782883
  0.6120750319712513  0.1083224307208397  0.8504932403080900
  0.6086717701479145  0.6060523386756458  0.3595142685836734
  0.6091489034556687  0.6093744232627571  0.8599720477744981
  0.3117250578743977  0.2248704534991646  0.3795290408175660
  0.3137179463102200  0.2270429059509809  0.8788606097937475
  0.3140705059495446  0.7261357426752255  0.3790645429639028
  0.3145828315014754  0.7269189806323979  0.8796970222523441
  0.8171779790025866  0.2249132487291021  0.3819756362998561
  0.8152727628782372  0.2268287999249310  0.8796298327728707
  0.8140964915278062  0.7262533197296577  0.3797575441086494
  0.8146735254644710  0.7269421881475395  0.8798484479248359
  0.0641193434071425  0.2265181025374687  0.1297468851703840
  0.0650553236011575  0.2265412306661787  0.6301977690950409
  0.0641490632959787  0.7265296882446819  0.1295996427330408
  0.0642991531844501  0.7268472084287438  0.6299184295076117
  0.5635849466851113  0.2265696452979284  0.1287578557272582
  0.5609398222149551  0.2328394531435478  0.6417085592511000
  0.5642928927013244  0.7257857937189129  0.1298871684249363
  0.5644810825374478  0.7265421078446792  0.6292358414617212
  0.3135396387987086  0.4766413987599094  0.1291398100858459
  0.3156684981588000  0.4779495611411377  0.6277781213459477
  0.3139979983555463  0.9760693181710351  0.1293356674291815
  0.3146731164993852  0.9757816029963777  0.6291366384362362
  0.8143918987059777  0.4765465153665076  0.1302420426003081
  0.8162150492469209  0.4775866423492729  0.6312668015700353
  0.8147108886231109  0.9763306604259725  0.1289128114004612
  0.8139705561134107  0.9767958045039578  0.6295885646512289
  0.0638131962825312  0.4767657376947412  0.3802445382321338
  0.0648241573849617  0.4768283564788049  0.8797390507709437
  0.0639961678079786  0.9758571907874867  0.3798049029358452
  0.0645154945256152  0.9764542515486241  0.8797245785096450
  0.5639193047030773  0.4733750901072753  0.3817777005220648
  0.5645412776854144  0.4784484309437715  0.8824953572159941
  0.5643290909102845  0.9747831731141474  0.3767638559344633
  0.5643547838836085  0.9761714018184833  0.8800998069874666
  0.3772819655807638  0.3139987411586205  0.2254406426108062
  0.3804636884195105  0.3151368612047989  0.7253888905149068
  0.3795657023811145  0.8138758003897948  0.2261803547770143
  0.3798404020593509  0.8144849679624784  0.7262759547133300
  0.8804005970002322  0.3141509344261380  0.2261371572658675
  0.8826358528961933  0.3147571423976174  0.7284127900050805
  0.8800119756139608  0.8141267858125047  0.2262113360778955
  0.8797071495168609  0.8148042084487912  0.7264859534241452
  0.1289559230893147  0.3139595827027009  0.4769263334073912
  0.1299470673779908  0.3143654851172926  0.9762065953165404
  0.1295188944536321  0.8141705659936349  0.4766084455376713
  0.1295975318539249  0.8143109625864398  0.9764187117882770
  0.6428432304225637  0.3115540534441550  0.4839501576287759
  0.6291847568075113  0.3147595397176133  0.9771890434344996
  0.6297790744458922  0.8144849034017128  0.4763806345162394
  0.6295770817953397  0.8138364580128865  0.9764131705083514
  0.3793575754783163  0.0636322207546769  0.4751298051550066
  0.3783333225669807  0.0640815142952249  0.9763728998636694
  0.3801007897335893  0.5652582042596492  0.4763205047072319
  0.3794855548283280  0.5645738734599419  0.9767322540014050
  0.8792390648871447  0.0634490596609325  0.4766912134077046
  0.8802825446053291  0.0645571066273689  0.9765476681462886
  0.8798210668076933  0.5649153218768603  0.4770458490100964
  0.8798714731917983  0.5646971925729787  0.9769433273937338
  0.1293342490814950  0.0637934849791080  0.2261701583172453
  0.1293377947541146  0.0642135511589430  0.7261601258014849
  0.1289242738236283  0.5645533701053864  0.2266244820541985
  0.1299182658301774  0.5646780890641878  0.7267620394341847
  0.6283636590579889  0.0627757805686571  0.2230415845435232
  0.6260408974903342  0.0683185144263021  0.7288284415089947
  0.6292733369130943  0.5630319628764795  0.2270756265484408
  0.6306236779186989  0.5660544117378734  0.7281034934434700
  0.2237202584352573  0.3781168155523957  0.3140423062533202
  0.2267173058904888  0.3798616750032195  0.8137335300802420
  0.2262099022495860  0.8789584827181685  0.3142189178958716
  0.2265057859961033  0.8794592518287558  0.8143486406258305
  0.7292893202366599  0.3746773526629212  0.3182032323195045
  0.7278582430489919  0.3812779268351889  0.8165606225530766
  0.7265917337164538  0.8780864262868633  0.3135585680424811
  0.7266865524892836  0.8801364898947526  0.8142523960958172
  0.4760513768535546  0.3801291177239818  0.0650802450430490
  0.4801000518153060  0.3862111218489162  0.5598318373542455
  0.4764043676337621  0.8794505818641838  0.0641502857794904
  0.4766055999011485  0.8795588210064906  0.5637693674065147
  0.9766256470062729  0.3796899221549950  0.0638997405128165
  0.9777024805806462  0.3797132613930430  0.5651792717021635
  0.9765272772793665  0.8792710410906039  0.0641146587274264
  0.9764126053430857  0.8799408747651540  0.5644641409993980
  0.2258474802480848  0.1294192021156846  0.0639265002941443
  0.2264559519674734  0.1294562111995532  0.5641480982882783
  0.2261257578375577  0.6298036200741493  0.0645370337384392
  0.2262512747826193  0.6302336657556680  0.5644498654719996
  0.7268216197474473  0.1299399201814566  0.0638230575424643
  0.7261444245224382  0.1312336344177680  0.5633338419408958
  0.7265413010623192  0.6294237055817433  0.0650227514321386
  0.7279227621402171  0.6311021116658537  0.5649502891717617
  0.4750338911678327  0.1295146975426178  0.3119836599116681
  0.4753654569848820  0.1319506626866271  0.8166985804821323
  0.4763447207789255  0.6280048858765639  0.3145024990628471
  0.4766528309342206  0.6300174882589715  0.8150755650349737
  0.9766120614993881  0.1279254476822800  0.3138733621571106
  0.9767895466249286  0.1294762650755601  0.8140719425732286
  0.9764736289594893  0.6298703784163777  0.3148773396202316
  0.9768769291617758  0.6300611627828161  0.8146657318029540
  0.3130046437554768  0.1291249643451593  0.2256989363011144
  0.3145234236155474  0.1302290107768940  0.7254463497585064
  0.3138017650555867  0.6293057296302536  0.2264513458656410
  0.3142208946086384  0.6300745013629552  0.7271024714503014
  0.8143105647218363  0.1299204381151569  0.2264329347907577
  0.8143466238461485  0.1296712450244399  0.7267401942076290
  0.8144061628162120  0.6304665329382928  0.2269009722037367
  0.8151358869950656  0.6303221494369495  0.7270342389773887
  0.0641486995527600  0.1296121386259159  0.4763595327611512
  0.0643374052064729  0.1296884621701935  0.9763753210271844
  0.0645547052590558  0.6298215458909979  0.4767563201403746
  0.0642776014725541  0.6298574932983598  0.9765477773920637
  0.5609963006203174  0.1266542951960119  0.4686692667203118
  0.5641784707394208  0.1275143292506371  0.9761532206951671
  0.5647090759794224  0.6285372488414254  0.4769079774267908
  0.5643656902542702  0.6306663398810812  0.9775216932018083
  0.3114985631084082  0.3785407194322801  0.4769179874426825
  0.3137016310897920  0.3800287463861949  0.9760522220706633
  0.3142419835782988  0.8793621724098131  0.4760552537953942
  0.3144704092454020  0.8797399101688370  0.9761638452718486
  0.8172535478294236  0.3803277802304876  0.4789769933232648
  0.8148931156251251  0.3797667798645392  0.9769618549588088
  0.8143958223131875  0.8796241556306867  0.4763802109845585
  0.8146327537942497  0.8796612833593827  0.9762616467603848
  0.0643763842396865  0.3807544973703401  0.2258345527743089
  0.0647346085052618  0.3799000421448540  0.7268395560392236
  0.0643461674881678  0.8793698489327184  0.2264413898357560
  0.0644605522035917  0.8798278307127276  0.7265113894412849
  0.5653525434385784  0.3803156321570285  0.2263710303414186
  0.5652156540477122  0.3847618450519619  0.7310566249416439
  0.5642175017629469  0.8777892457453973  0.2259035617842997
  0.5646586245267144  0.8794138756159953  0.7266433483614918
  0.2257988862510629  0.3142036144626275  0.1287325038047413
  0.2269164104691086  0.3147650831221966  0.6302851200773461
  0.2263279910274889  0.8142947192463339  0.1293294257252953
  0.2263029823308855  0.8147970863033933  0.6298588671041756
  0.7269297591966719  0.3147457679822523  0.1293436724646710
  0.7305059659840225  0.3161292686189370  0.6364917202312199
  0.7268052043878654  0.8139256722864090  0.1293972771248306
  0.7271733369930615  0.8141304463336709  0.6294271266944875
  0.4698769664387186  0.3086277449078878  0.3776775777265016
  0.4760344619120147  0.3155329469442307  0.8798345964110155
  0.4762112760453405  0.8133828808444008  0.3797531621629915
  0.4763857782814611  0.8146938901221574  0.8796909450380710
  0.9763310520202921  0.3141117912294433  0.3777087937623449
  0.9775138125949141  0.3146545598219745  0.8807588251500462
  0.9764395649422752  0.8139088199159588  0.3795390256784188
  0.9765553643154163  0.8145401667705130  0.8793252718671667
  0.2258291893037807  0.0628816953674232  0.3789179640481493
  0.2260022358484477  0.0641157441674167  0.8787655977131195
  0.2262314496943247  0.5637762910508428  0.3798802650924742
  0.2265712728392089  0.5648615407288489  0.8801654302625437
  0.7261933275336858  0.0635857918732583  0.3780740235581206
  0.7279366589050369  0.0643139903858554  0.8799279884529767
  0.7267285482028498  0.5632986543219545  0.3801964354242600
  0.7270916018545321  0.5652768589425392  0.8804357359293249
  0.4755050073776346  0.0638460301155490  0.1290925373679173
  0.4767596398919309  0.0624526325601238  0.6276951943899718
  0.4761323258394938  0.5642258332587176  0.1300967564832476
  0.4771298412424372  0.5659070523613536  0.6309496319324737
  0.9763386190795202  0.0642713246857269  0.1293994393447520
  0.9761997798261817  0.0646159022171418  0.6291702230106395
  0.9762674061918588  0.5645644777052254  0.1297937659939095
  0.9770711213389802  0.5648045422222623  0.6297194074708514
  0.1290911338583882  0.2256086028425273  0.3138746688643934
  0.1296068422605927  0.2266583592813731  0.8142679401948101
  0.1295252084352967  0.7261965666617272  0.3143918784909800
  0.1297656081813443  0.7266585293745251  0.8143944622250601
  0.6303746161103518  0.2261926541299815  0.3085988432012243
  0.6307517232517768  0.2286722222267912  0.8173166531859408
  0.6289413147762488  0.7243749617078308  0.3148567939830897
  0.6296568095145716  0.7269090352467558  0.8148224640953856
  0.3792206391840907  0.2264252255688959  0.0636283803904547
  0.3837075188209766  0.2244969241867310  0.5610261693174508
  0.3792770396090077  0.7263286919470815  0.0643649260977881
  0.3788257681433009  0.7264140674133159  0.5642708184842320
  0.8799105425219764  0.2264941487011640  0.0644293210262106
  0.8796637397791471  0.2267012777378170  0.5655684478835354
  0.8794752662650183  0.7263173463535537  0.0643573725362216
  0.8806908492800929  0.7271838123920844  0.5644824661692240
  0.1293487614772104  0.4768628011594558  0.0641471265629647
  0.1300124595391168  0.4767862111205474  0.5648393950007247
  0.1292548680365329  0.9763447525302951  0.0642342896954560
  0.1295789101161304  0.9764818916291205  0.5641712810711468
  0.6292991959983354  0.4769589946061217  0.0643902165968697
  0.6322350100228462  0.4791170359378683  0.5672633617324010
  0.6305086784523226  0.9754295704973543  0.0642337278086700
  0.6310075514106543  0.9760845995206608  0.5655498010280979
  0.3785144920918313  0.4756347303137431  0.3142889943955680
  0.3793281951717020  0.4771355959840093  0.8144272763556799
  0.3791997382903318  0.9755867506110505  0.3134231820599922
  0.3798576075912194  0.9769931014397883  0.8137631817726856
  0.8799221985186065  0.4776028771302876  0.3143534240620909
  0.8805729061253444  0.4771787103773306  0.8151825701399247
  0.8792510579028132  0.9754423708631634  0.3136177541779546
  0.8807141227146573  0.9767234365338169  0.8144039169208881
 
  0.00000000E+00  0.00000000E+00  0.00000000E+00
  0.00000000E+00  0.00000000E+00  0.00000000E+00
  0.00000000E+00  0.00000000E+00  0.00000000E+00
  0.00000000E+00  0.00000000E+00  0.00000000E+00
  0.00000000E+00  0.00000000E+00  0.00000000E+00
  0.00000000E+00  0.00000000E+00  0.00000000E+00
  0.00000000E+00  0.00000000E+00  0.00000000E+00
  0.00000000E+00  0.00000000E+00  0.00000000E+00
  0.00000000E+00  0.00000000E+00  0.00000000E+00
  0.00000000E+00  0.00000000E+00  0.00000000E+00
  0.00000000E+00  0.00000000E+00  0.00000000E+00
  0.00000000E+00  0.00000000E+00  0.00000000E+00
  0.00000000E+00  0.00000000E+00  0.00000000E+00
  0.00000000E+00  0.00000000E+00  0.00000000E+00
  0.00000000E+00  0.00000000E+00  0.00000000E+00
  0.00000000E+00  0.00000000E+00  0.00000000E+00
  0.00000000E+00  0.00000000E+00  0.00000000E+00
  0.00000000E+00  0.00000000E+00  0.00000000E+00
  0.00000000E+00  0.00000000E+00  0.00000000E+00
  0.00000000E+00  0.00000000E+00  0.00000000E+00
  0.00000000E+00  0.00000000E+00  0.00000000E+00
  0.00000000E+00  0.00000000E+00  0.00000000E+00
  0.00000000E+00  0.00000000E+00  0.00000000E+00
  0.00000000E+00  0.00000000E+00  0.00000000E+00
  0.00000000E+00  0.00000000E+00  0.00000000E+00
  0.00000000E+00  0.00000000E+00  0.00000000E+00
  0.00000000E+00  0.00000000E+00  0.00000000E+00
  0.00000000E+00  0.00000000E+00  0.00000000E+00
  0.00000000E+00  0.00000000E+00  0.00000000E+00
  0.00000000E+00  0.00000000E+00  0.00000000E+00
  0.00000000E+00  0.00000000E+00  0.00000000E+00
  0.00000000E+00  0.00000000E+00  0.00000000E+00
  0.00000000E+00  0.00000000E+00  0.00000000E+00
  0.00000000E+00  0.00000000E+00  0.00000000E+00
  0.00000000E+00  0.00000000E+00  0.00000000E+00
  0.00000000E+00  0.00000000E+00  0.00000000E+00
  0.00000000E+00  0.00000000E+00  0.00000000E+00
  0.00000000E+00  0.00000000E+00  0.00000000E+00
  0.00000000E+00  0.00000000E+00  0.00000000E+00
  0.00000000E+00  0.00000000E+00  0.00000000E+00
  0.00000000E+00  0.00000000E+00  0.00000000E+00
  0.00000000E+00  0.00000000E+00  0.00000000E+00
  0.00000000E+00  0.00000000E+00  0.00000000E+00
  0.00000000E+00  0.00000000E+00  0.00000000E+00
  0.00000000E+00  0.00000000E+00  0.00000000E+00
  0.00000000E+00  0.00000000E+00  0.00000000E+00
  0.00000000E+00  0.00000000E+00  0.00000000E+00
  0.00000000E+00  0.00000000E+00  0.00000000E+00
  0.00000000E+00  0.00000000E+00  0.00000000E+00
  0.00000000E+00  0.00000000E+00  0.00000000E+00
  0.00000000E+00  0.00000000E+00  0.00000000E+00
  0.00000000E+00  0.00000000E+00  0.00000000E+00
  0.00000000E+00  0.00000000E+00  0.00000000E+00
  0.00000000E+00  0.00000000E+00  0.00000000E+00
  0.00000000E+00  0.00000000E+00  0.00000000E+00
  0.00000000E+00  0.00000000E+00  0.00000000E+00
  0.00000000E+00  0.00000000E+00  0.00000000E+00
  0.00000000E+00  0.00000000E+00  0.00000000E+00
  0.00000000E+00  0.00000000E+00  0.00000000E+00
  0.00000000E+00  0.00000000E+00  0.00000000E+00
  0.00000000E+00  0.00000000E+00  0.00000000E+00
  0.00000000E+00  0.00000000E+00  0.00000000E+00
  0.00000000E+00  0.00000000E+00  0.00000000E+00
  0.00000000E+00  0.00000000E+00  0.00000000E+00
  0.00000000E+00  0.00000000E+00  0.00000000E+00
  0.00000000E+00  0.00000000E+00  0.00000000E+00
  0.00000000E+00  0.00000000E+00  0.00000000E+00
  0.00000000E+00  0.00000000E+00  0.00000000E+00
  0.00000000E+00  0.00000000E+00  0.00000000E+00
  0.00000000E+00  0.00000000E+00  0.00000000E+00
  0.00000000E+00  0.00000000E+00  0.00000000E+00
  0.00000000E+00  0.00000000E+00  0.00000000E+00
  0.00000000E+00  0.00000000E+00  0.00000000E+00
  0.00000000E+00  0.00000000E+00  0.00000000E+00
  0.00000000E+00  0.00000000E+00  0.00000000E+00
  0.00000000E+00  0.00000000E+00  0.00000000E+00
  0.00000000E+00  0.00000000E+00  0.00000000E+00
  0.00000000E+00  0.00000000E+00  0.00000000E+00
  0.00000000E+00  0.00000000E+00  0.00000000E+00
  0.00000000E+00  0.00000000E+00  0.00000000E+00
  0.00000000E+00  0.00000000E+00  0.00000000E+00
  0.00000000E+00  0.00000000E+00  0.00000000E+00
  0.00000000E+00  0.00000000E+00  0.00000000E+00
  0.00000000E+00  0.00000000E+00  0.00000000E+00
  0.00000000E+00  0.00000000E+00  0.00000000E+00
  0.00000000E+00  0.00000000E+00  0.00000000E+00
  0.00000000E+00  0.00000000E+00  0.00000000E+00
  0.00000000E+00  0.00000000E+00  0.00000000E+00
  0.00000000E+00  0.00000000E+00  0.00000000E+00
  0.00000000E+00  0.00000000E+00  0.00000000E+00
  0.00000000E+00  0.00000000E+00  0.00000000E+00
  0.00000000E+00  0.00000000E+00  0.00000000E+00
  0.00000000E+00  0.00000000E+00  0.00000000E+00
  0.00000000E+00  0.00000000E+00  0.00000000E+00
  0.00000000E+00  0.00000000E+00  0.00000000E+00
  0.00000000E+00  0.00000000E+00  0.00000000E+00
  0.00000000E+00  0.00000000E+00  0.00000000E+00
  0.00000000E+00  0.00000000E+00  0.00000000E+00
  0.00000000E+00  0.00000000E+00  0.00000000E+00
  0.00000000E+00  0.00000000E+00  0.00000000E+00
  0.00000000E+00  0.00000000E+00  0.00000000E+00
  0.00000000E+00  0.00000000E+00  0.00000000E+00
  0.00000000E+00  0.00000000E+00  0.00000000E+00
  0.00000000E+00  0.00000000E+00  0.00000000E+00
  0.00000000E+00  0.00000000E+00  0.00000000E+00
  0.00000000E+00  0.00000000E+00  0.00000000E+00
  0.00000000E+00  0.00000000E+00  0.00000000E+00
  0.00000000E+00  0.00000000E+00  0.00000000E+00
  0.00000000E+00  0.00000000E+00  0.00000000E+00
  0.00000000E+00  0.00000000E+00  0.00000000E+00
  0.00000000E+00  0.00000000E+00  0.00000000E+00
  0.00000000E+00  0.00000000E+00  0.00000000E+00
  0.00000000E+00  0.00000000E+00  0.00000000E+00
  0.00000000E+00  0.00000000E+00  0.00000000E+00
  0.00000000E+00  0.00000000E+00  0.00000000E+00
  0.00000000E+00  0.00000000E+00  0.00000000E+00
  0.00000000E+00  0.00000000E+00  0.00000000E+00
  0.00000000E+00  0.00000000E+00  0.00000000E+00
  0.00000000E+00  0.00000000E+00  0.00000000E+00
  0.00000000E+00  0.00000000E+00  0.00000000E+00
  0.00000000E+00  0.00000000E+00  0.00000000E+00
  0.00000000E+00  0.00000000E+00  0.00000000E+00
  0.00000000E+00  0.00000000E+00  0.00000000E+00
  0.00000000E+00  0.00000000E+00  0.00000000E+00
  0.00000000E+00  0.00000000E+00  0.00000000E+00
  0.00000000E+00  0.00000000E+00  0.00000000E+00
  0.00000000E+00  0.00000000E+00  0.00000000E+00
  0.00000000E+00  0.00000000E+00  0.00000000E+00
  0.00000000E+00  0.00000000E+00  0.00000000E+00
  0.00000000E+00  0.00000000E+00  0.00000000E+00
  0.00000000E+00  0.00000000E+00  0.00000000E+00
  0.00000000E+00  0.00000000E+00  0.00000000E+00
  0.00000000E+00  0.00000000E+00  0.00000000E+00
  0.00000000E+00  0.00000000E+00  0.00000000E+00
  0.00000000E+00  0.00000000E+00  0.00000000E+00
  0.00000000E+00  0.00000000E+00  0.00000000E+00
  0.00000000E+00  0.00000000E+00  0.00000000E+00
  0.00000000E+00  0.00000000E+00  0.00000000E+00
  0.00000000E+00  0.00000000E+00  0.00000000E+00
  0.00000000E+00  0.00000000E+00  0.00000000E+00
  0.00000000E+00  0.00000000E+00  0.00000000E+00
  0.00000000E+00  0.00000000E+00  0.00000000E+00
  0.00000000E+00  0.00000000E+00  0.00000000E+00
  0.00000000E+00  0.00000000E+00  0.00000000E+00
  0.00000000E+00  0.00000000E+00  0.00000000E+00
  0.00000000E+00  0.00000000E+00  0.00000000E+00
  0.00000000E+00  0.00000000E+00  0.00000000E+00
  0.00000000E+00  0.00000000E+00  0.00000000E+00
  0.00000000E+00  0.00000000E+00  0.00000000E+00
  0.00000000E+00  0.00000000E+00  0.00000000E+00
  0.00000000E+00  0.00000000E+00  0.00000000E+00
  0.00000000E+00  0.00000000E+00  0.00000000E+00
  0.00000000E+00  0.00000000E+00  0.00000000E+00
  0.00000000E+00  0.00000000E+00  0.00000000E+00
  0.00000000E+00  0.00000000E+00  0.00000000E+00
  0.00000000E+00  0.00000000E+00  0.00000000E+00
  0.00000000E+00  0.00000000E+00  0.00000000E+00
  0.00000000E+00  0.00000000E+00  0.00000000E+00
  0.00000000E+00  0.00000000E+00  0.00000000E+00
  0.00000000E+00  0.00000000E+00  0.00000000E+00
  0.00000000E+00  0.00000000E+00  0.00000000E+00
  0.00000000E+00  0.00000000E+00  0.00000000E+00
  0.00000000E+00  0.00000000E+00  0.00000000E+00
  0.00000000E+00  0.00000000E+00  0.00000000E+00
  0.00000000E+00  0.00000000E+00  0.00000000E+00
  0.00000000E+00  0.00000000E+00  0.00000000E+00
  0.00000000E+00  0.00000000E+00  0.00000000E+00
  0.00000000E+00  0.00000000E+00  0.00000000E+00
  0.00000000E+00  0.00000000E+00  0.00000000E+00
  0.00000000E+00  0.00000000E+00  0.00000000E+00
  0.00000000E+00  0.00000000E+00  0.00000000E+00
  0.00000000E+00  0.00000000E+00  0.00000000E+00
  0.00000000E+00  0.00000000E+00  0.00000000E+00
  0.00000000E+00  0.00000000E+00  0.00000000E+00
  0.00000000E+00  0.00000000E+00  0.00000000E+00
  0.00000000E+00  0.00000000E+00  0.00000000E+00
  0.00000000E+00  0.00000000E+00  0.00000000E+00
  0.00000000E+00  0.00000000E+00  0.00000000E+00
  0.00000000E+00  0.00000000E+00  0.00000000E+00
  0.00000000E+00  0.00000000E+00  0.00000000E+00
  0.00000000E+00  0.00000000E+00  0.00000000E+00
  0.00000000E+00  0.00000000E+00  0.00000000E+00
  0.00000000E+00  0.00000000E+00  0.00000000E+00
  0.00000000E+00  0.00000000E+00  0.00000000E+00
  0.00000000E+00  0.00000000E+00  0.00000000E+00
  0.00000000E+00  0.00000000E+00  0.00000000E+00
  0.00000000E+00  0.00000000E+00  0.00000000E+00
  0.00000000E+00  0.00000000E+00  0.00000000E+00
  0.00000000E+00  0.00000000E+00  0.00000000E+00
  0.00000000E+00  0.00000000E+00  0.00000000E+00
  0.00000000E+00  0.00000000E+00  0.00000000E+00
  0.00000000E+00  0.00000000E+00  0.00000000E+00
  0.00000000E+00  0.00000000E+00  0.00000000E+00
  0.00000000E+00  0.00000000E+00  0.00000000E+00
  0.00000000E+00  0.00000000E+00  0.00000000E+00
  0.00000000E+00  0.00000000E+00  0.00000000E+00
  0.00000000E+00  0.00000000E+00  0.00000000E+00
  0.00000000E+00  0.00000000E+00  0.00000000E+00
  0.00000000E+00  0.00000000E+00  0.00000000E+00
  0.00000000E+00  0.00000000E+00  0.00000000E+00
  0.00000000E+00  0.00000000E+00  0.00000000E+00
  0.00000000E+00  0.00000000E+00  0.00000000E+00
  0.00000000E+00  0.00000000E+00  0.00000000E+00
  0.00000000E+00  0.00000000E+00  0.00000000E+00
  0.00000000E+00  0.00000000E+00  0.00000000E+00
  0.00000000E+00  0.00000000E+00  0.00000000E+00
  0.00000000E+00  0.00000000E+00  0.00000000E+00