Li96 Nb32 O128                          
   1.00000000000000     
    13.7806110000000004   -0.0000030000000000   -4.8721819999999996
    -6.8903090000000002   11.9343559999999993   -4.8721850000000000
     0.0000000000000000   -0.0000040000000000   14.6165459999999996
   Li   Nb   O 
    96    32   128
Direct
  0.0000000000000000  0.1365570000000034  0.2572759999999974
  0.0000000000000000  0.1365570000000034  0.7572759999999974
  0.0000000000000000  0.6365570000000034  0.2572759999999974
  0.0000000000000000  0.6365570000000034  0.7572759999999974
  0.5000000000000000  0.1365570000000034  0.2572759999999974
  0.5000000000000000  0.1365570000000034  0.7572759999999974
  0.5000000000000000  0.6365570000000034  0.2572759999999974
  0.5000000000000000  0.6365570000000034  0.7572759999999974
  0.3634429999999966  0.3634429999999966  0.1207190000000011
  0.3634429999999966  0.3634429999999966  0.6207190000000011
  0.3634429999999966  0.8634429999999966  0.1207190000000011
  0.3634429999999966  0.8634429999999966  0.6207190000000011
  0.8634429999999966  0.3634429999999966  0.1207190000000011
  0.8634429999999966  0.3634429999999966  0.6207190000000011
  0.8634429999999966  0.8634429999999966  0.1207190000000011
  0.8634429999999966  0.8634429999999966  0.6207190000000011
  0.1365570000000034  0.0000000000000000  0.2572759999999974
  0.1365570000000034  0.0000000000000000  0.7572759999999974
  0.1365570000000034  0.5000000000000000  0.2572759999999974
  0.1365570000000034  0.5000000000000000  0.7572759999999974
  0.6365570000000034  0.0000000000000000  0.2572759999999974
  0.6365570000000034  0.0000000000000000  0.7572759999999974
  0.6365570000000034  0.5000000000000000  0.2572759999999974
  0.6365570000000034  0.5000000000000000  0.7572759999999974
  0.0000000000000000  0.2572759999999974  0.1365570000000034
  0.0000000000000000  0.2572759999999974  0.6365570000000034
  0.0000000000000000  0.7572759999999974  0.1365570000000034
  0.0000000000000000  0.7572759999999974  0.6365570000000034
  0.5000000000000000  0.2572759999999974  0.1365570000000034
  0.5000000000000000  0.2572759999999974  0.6365570000000034
  0.5000000000000000  0.7572759999999974  0.1365570000000034
  0.5000000000000000  0.7572759999999974  0.6365570000000034
  0.1365570000000034  0.2572759999999974  0.0000000000000000
  0.1365570000000034  0.2572759999999974  0.5000000000000000
  0.1365570000000034  0.7572759999999974  0.0000000000000000
  0.1365570000000034  0.7572759999999974  0.5000000000000000
  0.6365570000000034  0.2572759999999974  0.0000000000000000
  0.6365570000000034  0.2572759999999974  0.5000000000000000
  0.6365570000000034  0.7572759999999974  0.0000000000000000
  0.6365570000000034  0.7572759999999974  0.5000000000000000
  0.3634429999999966  0.1207190000000011  0.3634429999999966
  0.3634429999999966  0.1207199999999986  0.8634429999999966
  0.3634429999999966  0.6207190000000011  0.3634429999999966
  0.3634429999999966  0.6207190000000011  0.8634429999999966
  0.8634429999999966  0.1207199999999986  0.3634429999999966
  0.8634429999999966  0.1207190000000011  0.8634429999999966
  0.8634429999999966  0.6207190000000011  0.3634429999999966
  0.8634429999999966  0.6207190000000011  0.8634429999999966
  0.1207190000000011  0.3634429999999966  0.3634429999999966
  0.1207199999999986  0.3634429999999966  0.8634429999999966
  0.1207190000000011  0.8634429999999966  0.3634429999999966
  0.1207199999999986  0.8634429999999966  0.8634429999999966
  0.6207190000000011  0.3634429999999966  0.3634429999999966
  0.6207190000000011  0.3634429999999966  0.8634429999999966
  0.6207190000000011  0.8634429999999966  0.3634429999999966
  0.6207190000000011  0.8634429999999966  0.8634429999999966
  0.2572759999999974  0.1365570000000034  0.0000000000000000
  0.2572759999999974  0.1365570000000034  0.5000000000000000
  0.2572759999999974  0.6365570000000034  0.0000000000000000
  0.2572759999999974  0.6365570000000034  0.5000000000000000
  0.7572759999999974  0.1365570000000034  0.0000000000000000
  0.7572759999999974  0.1365570000000034  0.5000000000000000
  0.7572759999999974  0.6365570000000034  0.0000000000000000
  0.7572759999999974  0.6365570000000034  0.5000000000000000
  0.2572759999999974  0.0000000000000000  0.1365570000000034
  0.2572759999999974  0.0000000000000000  0.6365570000000034
  0.2572759999999974  0.5000000000000000  0.1365570000000034
  0.2572759999999974  0.5000000000000000  0.6365570000000034
  0.7572759999999974  0.0000000000000000  0.1365570000000034
  0.7572759999999974  0.0000000000000000  0.6365570000000034
  0.7572759999999974  0.5000000000000000  0.1365570000000034
  0.7572759999999974  0.5000000000000000  0.6365570000000034
  0.3792809999999989  0.2427240000000026  0.2427240000000026
  0.3792809999999989  0.2427240000000026  0.7427240000000026
  0.3792809999999989  0.7427240000000026  0.2427240000000026
  0.3792809999999989  0.7427240000000026  0.7427240000000026
  0.8792809999999989  0.2427240000000026  0.2427240000000026
  0.8792809999999989  0.2427240000000026  0.7427240000000026
  0.8792809999999989  0.7427240000000026  0.2427240000000026
  0.8792809999999989  0.7427240000000026  0.7427240000000026
  0.2427240000000026  0.2427240000000026  0.3792800000000014
  0.2427240000000026  0.2427240000000026  0.8792809999999989
  0.2427240000000026  0.7427240000000026  0.3792809999999989
  0.2427240000000026  0.7427240000000026  0.8792809999999989
  0.7427240000000026  0.2427240000000026  0.3792809999999989
  0.7427240000000026  0.2427240000000026  0.8792809999999989
  0.7427240000000026  0.7427240000000026  0.3792800000000014
  0.7427240000000026  0.7427240000000026  0.8792800000000014
  0.2427240000000026  0.3792809999999989  0.2427240000000026
  0.2427240000000026  0.3792809999999989  0.7427240000000026
  0.2427240000000026  0.8792809999999989  0.2427240000000026
  0.2427240000000026  0.8792809999999989  0.7427240000000026
  0.7427240000000026  0.3792809999999989  0.2427240000000026
  0.7427240000000026  0.3792809999999989  0.7427240000000026
  0.7427240000000026  0.8792809999999989  0.2427240000000026
  0.7427240000000026  0.8792809999999989  0.7427240000000026
  0.0000009999999975  0.0000000000000000  0.3589709999999968
  0.0000000000000000  0.0000000000000000  0.8589709999999968
  0.0000000000000000  0.5000000000000000  0.3589709999999968
  0.0000000000000000  0.5000000000000000  0.8589709999999968
  0.5000000000000000  0.0000000000000000  0.3589709999999968
  0.5000000000000000  0.0000000000000000  0.8589720000000014
  0.5000000000000000  0.5000000000000000  0.3589709999999968
  0.5000000000000000  0.5000000000000000  0.8589709999999968
  0.9999990000000025  0.3589709999999968  0.0000000000000000
  0.0000000000000000  0.3589709999999968  0.5000000000000000
  0.9999990000000025  0.8589709999999968  0.0000000000000000
  0.0000000000000000  0.8589709999999968  0.5000000000000000
  0.5000000000000000  0.3589720000000014  0.0000000000000000
  0.5000000000000000  0.3589709999999968  0.5000000000000000
  0.5000000000000000  0.8589720000000014  0.0000000000000000
  0.4999990000000025  0.8589709999999968  0.5000000000000000
  0.3589720000000014  0.0000000000000000  0.0000000000000000
  0.3589709999999968  0.0000000000000000  0.5000000000000000
  0.3589709999999968  0.5000000000000000  0.0000000000000000
  0.3589720000000014  0.5000009999999975  0.5000000000000000
  0.8589709999999968  0.0000000000000000  0.0000000000000000
  0.8589709999999968  0.0000000000000000  0.5000000000000000
  0.8589709999999968  0.4999990000000025  0.9999990000000025
  0.8589720000000014  0.5000000000000000  0.5000000000000000
  0.1410279999999986  0.1410279999999986  0.1410279999999986
  0.1410290000000032  0.1410290000000032  0.6410290000000032
  0.1410290000000032  0.6410290000000032  0.1410290000000032
  0.1410290000000032  0.6410290000000032  0.6410290000000032
  0.6410290000000032  0.1410290000000032  0.1410290000000032
  0.6410290000000032  0.1410290000000032  0.6410290000000032
  0.6410279999999986  0.6410290000000032  0.1410290000000032
  0.6410290000000032  0.6410290000000032  0.6410290000000032
  0.0000000000000000  0.3792949999999990  0.2560810000000018
  0.0000000000000000  0.3792949999999990  0.7560810000000018
  0.0000000000000000  0.8792959999999965  0.2560810000000018
  0.0000000000000000  0.8792959999999965  0.7560810000000018
  0.5000000000000000  0.3792949999999990  0.2560810000000018
  0.5000000000000000  0.3792949999999990  0.7560810000000018
  0.5000000000000000  0.8792949999999990  0.2560810000000018
  0.5000000000000000  0.8792949999999990  0.7560810000000018
  0.1207040000000035  0.1207040000000035  0.3767860000000027
  0.1207040000000035  0.1207040000000035  0.8767860000000027
  0.1207050000000010  0.6207050000000010  0.3767860000000027
  0.1207050000000010  0.6207050000000010  0.8767860000000027
  0.6207050000000010  0.1207050000000010  0.3767860000000027
  0.6207050000000010  0.1207050000000010  0.8767860000000027
  0.6207050000000010  0.6207050000000010  0.3767860000000027
  0.6207050000000010  0.6207050000000010  0.8767860000000027
  0.3792949999999990  0.0000000000000000  0.2560810000000018
  0.3792949999999990  0.0000000000000000  0.7560810000000018
  0.3792949999999990  0.5000000000000000  0.2560810000000018
  0.3792949999999990  0.5000000000000000  0.7560810000000018
  0.8792959999999965  0.0000000000000000  0.2560810000000018
  0.8792959999999965  0.0000000000000000  0.7560810000000018
  0.8792949999999990  0.5000000000000000  0.2560810000000018
  0.8792949999999990  0.5000000000000000  0.7560810000000018
  0.0000000000000000  0.2560810000000018  0.3792959999999965
  0.0000000000000000  0.2560810000000018  0.8792949999999990
  0.0000000000000000  0.7560810000000018  0.3792959999999965
  0.0000000000000000  0.7560810000000018  0.8792959999999965
  0.5000000000000000  0.2560810000000018  0.3792959999999965
  0.5000000000000000  0.2560810000000018  0.8792949999999990
  0.5000000000000000  0.7560810000000018  0.3792949999999990
  0.5000000000000000  0.7560810000000018  0.8792949999999990
  0.3792949999999990  0.2560810000000018  0.0000000000000000
  0.3792959999999965  0.2560810000000018  0.5000000000000000
  0.3792949999999990  0.7560810000000018  0.0000000000000000
  0.3792949999999990  0.7560810000000018  0.5000000000000000
  0.8792959999999965  0.2560810000000018  0.0000000000000000
  0.8792949999999990  0.2560810000000018  0.5000000000000000
  0.8792959999999965  0.7560810000000018  0.0000000000000000
  0.8792959999999965  0.7560810000000018  0.5000000000000000
  0.1207050000000010  0.3767860000000027  0.1207050000000010
  0.1207050000000010  0.3767860000000027  0.6207050000000010
  0.1207040000000035  0.8767860000000027  0.1207050000000010
  0.1207040000000035  0.8767860000000027  0.6207040000000035
  0.6207050000000010  0.3767860000000027  0.1207050000000010
  0.6207050000000010  0.3767860000000027  0.6207050000000010
  0.6207050000000010  0.8767860000000027  0.1207050000000010
  0.6207050000000010  0.8767860000000027  0.6207050000000010
  0.3767849999999981  0.1207050000000010  0.1207050000000010
  0.3767849999999981  0.1207050000000010  0.6207050000000010
  0.3767860000000027  0.6207050000000010  0.1207050000000010
  0.3767860000000027  0.6207050000000010  0.6207050000000010
  0.8767860000000027  0.1207040000000035  0.1207040000000035
  0.8767849999999981  0.1207040000000035  0.6207040000000035
  0.8767860000000027  0.6207050000000010  0.1207050000000010
  0.8767860000000027  0.6207050000000010  0.6207050000000010
  0.2560810000000018  0.3792949999999990  0.0000000000000000
  0.2560810000000018  0.3792959999999965  0.5000000000000000
  0.2560810000000018  0.8792949999999990  0.0000000000000000
  0.2560810000000018  0.8792949999999990  0.5000000000000000
  0.7560810000000018  0.3792949999999990  0.0000000000000000
  0.7560810000000018  0.3792949999999990  0.5000000000000000
  0.7560810000000018  0.8792949999999990  0.0000000000000000
  0.7560810000000018  0.8792959999999965  0.5000000000000000
  0.2560810000000018  0.0000000000000000  0.3792949999999990
  0.2560810000000018  0.0000000000000000  0.8792949999999990
  0.2560810000000018  0.5000000000000000  0.3792949999999990
  0.2560810000000018  0.5000000000000000  0.8792949999999990
  0.7560810000000018  0.0000000000000000  0.3792959999999965
  0.7560810000000018  0.0000000000000000  0.8792949999999990
  0.7560810000000018  0.5000000000000000  0.3792949999999990
  0.7560810000000018  0.5000000000000000  0.8792949999999990
  0.1232150000000019  0.2439189999999982  0.2439189999999982
  0.1232150000000019  0.2439189999999982  0.7439189999999982
  0.1232150000000019  0.7439189999999982  0.2439189999999982
  0.1232150000000019  0.7439189999999982  0.7439189999999982
  0.6232150000000019  0.2439189999999982  0.2439200000000028
  0.6232150000000019  0.2439189999999982  0.7439189999999982
  0.6232150000000019  0.7439189999999982  0.2439189999999982
  0.6232150000000019  0.7439189999999982  0.7439189999999982
  0.2439189999999982  0.2439189999999982  0.1232150000000019
  0.2439189999999982  0.2439189999999982  0.6232150000000019
  0.2439189999999982  0.7439189999999982  0.1232150000000019
  0.2439189999999982  0.7439189999999982  0.6232150000000019
  0.7439189999999982  0.2439189999999982  0.1232150000000019
  0.7439189999999982  0.2439189999999982  0.6232150000000019
  0.7439189999999982  0.7439189999999982  0.1232150000000019
  0.7439189999999982  0.7439189999999982  0.6232150000000019
  0.2439189999999982  0.1232150000000019  0.2439189999999982
  0.2439189999999982  0.1232150000000019  0.7439189999999982
  0.2439189999999982  0.6232150000000019  0.2439200000000028
  0.2439189999999982  0.6232150000000019  0.7439189999999982
  0.7439189999999982  0.1232150000000019  0.2439200000000028
  0.7439189999999982  0.1232150000000019  0.7439189999999982
  0.7439189999999982  0.6232150000000019  0.2439189999999982
  0.7439189999999982  0.6232150000000019  0.7439189999999982
  0.0000000000000000  0.0000000000000000  0.1141530000000017
  0.0000000000000000  0.0000000000000000  0.6141530000000017
  0.0000000000000000  0.5000000000000000  0.1141530000000017
  0.0000000000000000  0.5000000000000000  0.6141530000000017
  0.5000000000000000  0.0000000000000000  0.1141530000000017
  0.5000000000000000  0.0000000000000000  0.6141530000000017
  0.5000000000000000  0.5000000000000000  0.1141530000000017
  0.5000000000000000  0.5000000000000000  0.6141530000000017
  0.0000000000000000  0.1141530000000017  0.0000000000000000
  0.0000000000000000  0.1141530000000017  0.5000000000000000
  0.0000000000000000  0.6141530000000017  0.0000000000000000
  0.0000000000000000  0.6141530000000017  0.5000000000000000
  0.5000000000000000  0.1141530000000017  0.0000000000000000
  0.5000000000000000  0.1141530000000017  0.5000000000000000
  0.5000000000000000  0.6141530000000017  0.0000000000000000
  0.5000000000000000  0.6141530000000017  0.5000000000000000
  0.1141530000000017  0.0000000000000000  0.0000000000000000
  0.1141530000000017  0.0000000000000000  0.5000000000000000
  0.1141530000000017  0.5000000000000000  0.0000000000000000
  0.1141530000000017  0.5000000000000000  0.5000000000000000
  0.6141530000000017  0.0000000000000000  0.0000000000000000
  0.6141530000000017  0.0000000000000000  0.5000000000000000
  0.6141530000000017  0.5000000000000000  0.0000000000000000
  0.6141530000000017  0.5000000000000000  0.5000000000000000
  0.3858469999999983  0.3858469999999983  0.3858469999999983
  0.3858469999999983  0.3858469999999983  0.8858469999999983
  0.3858469999999983  0.8858469999999983  0.3858469999999983
  0.3858469999999983  0.8858469999999983  0.8858469999999983
  0.8858469999999983  0.3858469999999983  0.3858469999999983
  0.8858469999999983  0.3858469999999983  0.8858469999999983
  0.8858469999999983  0.8858469999999983  0.3858469999999983
  0.8858469999999983  0.8858469999999983  0.8858469999999983
 
  0.00000000E+00  0.00000000E+00  0.00000000E+00
  0.00000000E+00  0.00000000E+00  0.00000000E+00
  0.00000000E+00  0.00000000E+00  0.00000000E+00
  0.00000000E+00  0.00000000E+00  0.00000000E+00
  0.00000000E+00  0.00000000E+00  0.00000000E+00
  0.00000000E+00  0.00000000E+00  0.00000000E+00
  0.00000000E+00  0.00000000E+00  0.00000000E+00
  0.00000000E+00  0.00000000E+00  0.00000000E+00
  0.00000000E+00  0.00000000E+00  0.00000000E+00
  0.00000000E+00  0.00000000E+00  0.00000000E+00
  0.00000000E+00  0.00000000E+00  0.00000000E+00
  0.00000000E+00  0.00000000E+00  0.00000000E+00
  0.00000000E+00  0.00000000E+00  0.00000000E+00
  0.00000000E+00  0.00000000E+00  0.00000000E+00
  0.00000000E+00  0.00000000E+00  0.00000000E+00
  0.00000000E+00  0.00000000E+00  0.00000000E+00
  0.00000000E+00  0.00000000E+00  0.00000000E+00
  0.00000000E+00  0.00000000E+00  0.00000000E+00
  0.00000000E+00  0.00000000E+00  0.00000000E+00
  0.00000000E+00  0.00000000E+00  0.00000000E+00
  0.00000000E+00  0.00000000E+00  0.00000000E+00
  0.00000000E+00  0.00000000E+00  0.00000000E+00
  0.00000000E+00  0.00000000E+00  0.00000000E+00
  0.00000000E+00  0.00000000E+00  0.00000000E+00
  0.00000000E+00  0.00000000E+00  0.00000000E+00
  0.00000000E+00  0.00000000E+00  0.00000000E+00
  0.00000000E+00  0.00000000E+00  0.00000000E+00
  0.00000000E+00  0.00000000E+00  0.00000000E+00
  0.00000000E+00  0.00000000E+00  0.00000000E+00
  0.00000000E+00  0.00000000E+00  0.00000000E+00
  0.00000000E+00  0.00000000E+00  0.00000000E+00
  0.00000000E+00  0.00000000E+00  0.00000000E+00
  0.00000000E+00  0.00000000E+00  0.00000000E+00
  0.00000000E+00  0.00000000E+00  0.00000000E+00
  0.00000000E+00  0.00000000E+00  0.00000000E+00
  0.00000000E+00  0.00000000E+00  0.00000000E+00
  0.00000000E+00  0.00000000E+00  0.00000000E+00
  0.00000000E+00  0.00000000E+00  0.00000000E+00
  0.00000000E+00  0.00000000E+00  0.00000000E+00
  0.00000000E+00  0.00000000E+00  0.00000000E+00
  0.00000000E+00  0.00000000E+00  0.00000000E+00
  0.00000000E+00  0.00000000E+00  0.00000000E+00
  0.00000000E+00  0.00000000E+00  0.00000000E+00
  0.00000000E+00  0.00000000E+00  0.00000000E+00
  0.00000000E+00  0.00000000E+00  0.00000000E+00
  0.00000000E+00  0.00000000E+00  0.00000000E+00
  0.00000000E+00  0.00000000E+00  0.00000000E+00
  0.00000000E+00  0.00000000E+00  0.00000000E+00
  0.00000000E+00  0.00000000E+00  0.00000000E+00
  0.00000000E+00  0.00000000E+00  0.00000000E+00
  0.00000000E+00  0.00000000E+00  0.00000000E+00
  0.00000000E+00  0.00000000E+00  0.00000000E+00
  0.00000000E+00  0.00000000E+00  0.00000000E+00
  0.00000000E+00  0.00000000E+00  0.00000000E+00
  0.00000000E+00  0.00000000E+00  0.00000000E+00
  0.00000000E+00  0.00000000E+00  0.00000000E+00
  0.00000000E+00  0.00000000E+00  0.00000000E+00
  0.00000000E+00  0.00000000E+00  0.00000000E+00
  0.00000000E+00  0.00000000E+00  0.00000000E+00
  0.00000000E+00  0.00000000E+00  0.00000000E+00
  0.00000000E+00  0.00000000E+00  0.00000000E+00
  0.00000000E+00  0.00000000E+00  0.00000000E+00
  0.00000000E+00  0.00000000E+00  0.00000000E+00
  0.00000000E+00  0.00000000E+00  0.00000000E+00
  0.00000000E+00  0.00000000E+00  0.00000000E+00
  0.00000000E+00  0.00000000E+00  0.00000000E+00
  0.00000000E+00  0.00000000E+00  0.00000000E+00
  0.00000000E+00  0.00000000E+00  0.00000000E+00
  0.00000000E+00  0.00000000E+00  0.00000000E+00
  0.00000000E+00  0.00000000E+00  0.00000000E+00
  0.00000000E+00  0.00000000E+00  0.00000000E+00
  0.00000000E+00  0.00000000E+00  0.00000000E+00
  0.00000000E+00  0.00000000E+00  0.00000000E+00
  0.00000000E+00  0.00000000E+00  0.00000000E+00
  0.00000000E+00  0.00000000E+00  0.00000000E+00
  0.00000000E+00  0.00000000E+00  0.00000000E+00
  0.00000000E+00  0.00000000E+00  0.00000000E+00
  0.00000000E+00  0.00000000E+00  0.00000000E+00
  0.00000000E+00  0.00000000E+00  0.00000000E+00
  0.00000000E+00  0.00000000E+00  0.00000000E+00
  0.00000000E+00  0.00000000E+00  0.00000000E+00
  0.00000000E+00  0.00000000E+00  0.00000000E+00
  0.00000000E+00  0.00000000E+00  0.00000000E+00
  0.00000000E+00  0.00000000E+00  0.00000000E+00
  0.00000000E+00  0.00000000E+00  0.00000000E+00
  0.00000000E+00  0.00000000E+00  0.00000000E+00
  0.00000000E+00  0.00000000E+00  0.00000000E+00
  0.00000000E+00  0.00000000E+00  0.00000000E+00
  0.00000000E+00  0.00000000E+00  0.00000000E+00
  0.00000000E+00  0.00000000E+00  0.00000000E+00
  0.00000000E+00  0.00000000E+00  0.00000000E+00
  0.00000000E+00  0.00000000E+00  0.00000000E+00
  0.00000000E+00  0.00000000E+00  0.00000000E+00
  0.00000000E+00  0.00000000E+00  0.00000000E+00
  0.00000000E+00  0.00000000E+00  0.00000000E+00
  0.00000000E+00  0.00000000E+00  0.00000000E+00
  0.00000000E+00  0.00000000E+00  0.00000000E+00
  0.00000000E+00  0.00000000E+00  0.00000000E+00
  0.00000000E+00  0.00000000E+00  0.00000000E+00
  0.00000000E+00  0.00000000E+00  0.00000000E+00
  0.00000000E+00  0.00000000E+00  0.00000000E+00
  0.00000000E+00  0.00000000E+00  0.00000000E+00
  0.00000000E+00  0.00000000E+00  0.00000000E+00
  0.00000000E+00  0.00000000E+00  0.00000000E+00
  0.00000000E+00  0.00000000E+00  0.00000000E+00
  0.00000000E+00  0.00000000E+00  0.00000000E+00
  0.00000000E+00  0.00000000E+00  0.00000000E+00
  0.00000000E+00  0.00000000E+00  0.00000000E+00
  0.00000000E+00  0.00000000E+00  0.00000000E+00
  0.00000000E+00  0.00000000E+00  0.00000000E+00
  0.00000000E+00  0.00000000E+00  0.00000000E+00
  0.00000000E+00  0.00000000E+00  0.00000000E+00
  0.00000000E+00  0.00000000E+00  0.00000000E+00
  0.00000000E+00  0.00000000E+00  0.00000000E+00
  0.00000000E+00  0.00000000E+00  0.00000000E+00
  0.00000000E+00  0.00000000E+00  0.00000000E+00
  0.00000000E+00  0.00000000E+00  0.00000000E+00
  0.00000000E+00  0.00000000E+00  0.00000000E+00
  0.00000000E+00  0.00000000E+00  0.00000000E+00
  0.00000000E+00  0.00000000E+00  0.00000000E+00
  0.00000000E+00  0.00000000E+00  0.00000000E+00
  0.00000000E+00  0.00000000E+00  0.00000000E+00
  0.00000000E+00  0.00000000E+00  0.00000000E+00
  0.00000000E+00  0.00000000E+00  0.00000000E+00
  0.00000000E+00  0.00000000E+00  0.00000000E+00
  0.00000000E+00  0.00000000E+00  0.00000000E+00
  0.00000000E+00  0.00000000E+00  0.00000000E+00
  0.00000000E+00  0.00000000E+00  0.00000000E+00
  0.00000000E+00  0.00000000E+00  0.00000000E+00
  0.00000000E+00  0.00000000E+00  0.00000000E+00
  0.00000000E+00  0.00000000E+00  0.00000000E+00
  0.00000000E+00  0.00000000E+00  0.00000000E+00
  0.00000000E+00  0.00000000E+00  0.00000000E+00
  0.00000000E+00  0.00000000E+00  0.00000000E+00
  0.00000000E+00  0.00000000E+00  0.00000000E+00
  0.00000000E+00  0.00000000E+00  0.00000000E+00
  0.00000000E+00  0.00000000E+00  0.00000000E+00
  0.00000000E+00  0.00000000E+00  0.00000000E+00
  0.00000000E+00  0.00000000E+00  0.00000000E+00
  0.00000000E+00  0.00000000E+00  0.00000000E+00
  0.00000000E+00  0.00000000E+00  0.00000000E+00
  0.00000000E+00  0.00000000E+00  0.00000000E+00
  0.00000000E+00  0.00000000E+00  0.00000000E+00
  0.00000000E+00  0.00000000E+00  0.00000000E+00
  0.00000000E+00  0.00000000E+00  0.00000000E+00
  0.00000000E+00  0.00000000E+00  0.00000000E+00
  0.00000000E+00  0.00000000E+00  0.00000000E+00
  0.00000000E+00  0.00000000E+00  0.00000000E+00
  0.00000000E+00  0.00000000E+00  0.00000000E+00
  0.00000000E+00  0.00000000E+00  0.00000000E+00
  0.00000000E+00  0.00000000E+00  0.00000000E+00
  0.00000000E+00  0.00000000E+00  0.00000000E+00
  0.00000000E+00  0.00000000E+00  0.00000000E+00
  0.00000000E+00  0.00000000E+00  0.00000000E+00
  0.00000000E+00  0.00000000E+00  0.00000000E+00
  0.00000000E+00  0.00000000E+00  0.00000000E+00
  0.00000000E+00  0.00000000E+00  0.00000000E+00
  0.00000000E+00  0.00000000E+00  0.00000000E+00
  0.00000000E+00  0.00000000E+00  0.00000000E+00
  0.00000000E+00  0.00000000E+00  0.00000000E+00
  0.00000000E+00  0.00000000E+00  0.00000000E+00
  0.00000000E+00  0.00000000E+00  0.00000000E+00
  0.00000000E+00  0.00000000E+00  0.00000000E+00
  0.00000000E+00  0.00000000E+00  0.00000000E+00
  0.00000000E+00  0.00000000E+00  0.00000000E+00
  0.00000000E+00  0.00000000E+00  0.00000000E+00
  0.00000000E+00  0.00000000E+00  0.00000000E+00
  0.00000000E+00  0.00000000E+00  0.00000000E+00
  0.00000000E+00  0.00000000E+00  0.00000000E+00
  0.00000000E+00  0.00000000E+00  0.00000000E+00
  0.00000000E+00  0.00000000E+00  0.00000000E+00
  0.00000000E+00  0.00000000E+00  0.00000000E+00
  0.00000000E+00  0.00000000E+00  0.00000000E+00
  0.00000000E+00  0.00000000E+00  0.00000000E+00
  0.00000000E+00  0.00000000E+00  0.00000000E+00
  0.00000000E+00  0.00000000E+00  0.00000000E+00
  0.00000000E+00  0.00000000E+00  0.00000000E+00
  0.00000000E+00  0.00000000E+00  0.00000000E+00
  0.00000000E+00  0.00000000E+00  0.00000000E+00
  0.00000000E+00  0.00000000E+00  0.00000000E+00
  0.00000000E+00  0.00000000E+00  0.00000000E+00
  0.00000000E+00  0.00000000E+00  0.00000000E+00
  0.00000000E+00  0.00000000E+00  0.00000000E+00
  0.00000000E+00  0.00000000E+00  0.00000000E+00
  0.00000000E+00  0.00000000E+00  0.00000000E+00
  0.00000000E+00  0.00000000E+00  0.00000000E+00
  0.00000000E+00  0.00000000E+00  0.00000000E+00
  0.00000000E+00  0.00000000E+00  0.00000000E+00
  0.00000000E+00  0.00000000E+00  0.00000000E+00
  0.00000000E+00  0.00000000E+00  0.00000000E+00
  0.00000000E+00  0.00000000E+00  0.00000000E+00
  0.00000000E+00  0.00000000E+00  0.00000000E+00
  0.00000000E+00  0.00000000E+00  0.00000000E+00
  0.00000000E+00  0.00000000E+00  0.00000000E+00
  0.00000000E+00  0.00000000E+00  0.00000000E+00
  0.00000000E+00  0.00000000E+00  0.00000000E+00
  0.00000000E+00  0.00000000E+00  0.00000000E+00
  0.00000000E+00  0.00000000E+00  0.00000000E+00
  0.00000000E+00  0.00000000E+00  0.00000000E+00
  0.00000000E+00  0.00000000E+00  0.00000000E+00
  0.00000000E+00  0.00000000E+00  0.00000000E+00
  0.00000000E+00  0.00000000E+00  0.00000000E+00
  0.00000000E+00  0.00000000E+00  0.00000000E+00
  0.00000000E+00  0.00000000E+00  0.00000000E+00
  0.00000000E+00  0.00000000E+00  0.00000000E+00
  0.00000000E+00  0.00000000E+00  0.00000000E+00
  0.00000000E+00  0.00000000E+00  0.00000000E+00
  0.00000000E+00  0.00000000E+00  0.00000000E+00
  0.00000000E+00  0.00000000E+00  0.00000000E+00
  0.00000000E+00  0.00000000E+00  0.00000000E+00
  0.00000000E+00  0.00000000E+00  0.00000000E+00
  0.00000000E+00  0.00000000E+00  0.00000000E+00
  0.00000000E+00  0.00000000E+00  0.00000000E+00
  0.00000000E+00  0.00000000E+00  0.00000000E+00
  0.00000000E+00  0.00000000E+00  0.00000000E+00
  0.00000000E+00  0.00000000E+00  0.00000000E+00
  0.00000000E+00  0.00000000E+00  0.00000000E+00
  0.00000000E+00  0.00000000E+00  0.00000000E+00
  0.00000000E+00  0.00000000E+00  0.00000000E+00
  0.00000000E+00  0.00000000E+00  0.00000000E+00
  0.00000000E+00  0.00000000E+00  0.00000000E+00
  0.00000000E+00  0.00000000E+00  0.00000000E+00
  0.00000000E+00  0.00000000E+00  0.00000000E+00
  0.00000000E+00  0.00000000E+00  0.00000000E+00
  0.00000000E+00  0.00000000E+00  0.00000000E+00
  0.00000000E+00  0.00000000E+00  0.00000000E+00
  0.00000000E+00  0.00000000E+00  0.00000000E+00
  0.00000000E+00  0.00000000E+00  0.00000000E+00
  0.00000000E+00  0.00000000E+00  0.00000000E+00
  0.00000000E+00  0.00000000E+00  0.00000000E+00
  0.00000000E+00  0.00000000E+00  0.00000000E+00
  0.00000000E+00  0.00000000E+00  0.00000000E+00
  0.00000000E+00  0.00000000E+00  0.00000000E+00
  0.00000000E+00  0.00000000E+00  0.00000000E+00
  0.00000000E+00  0.00000000E+00  0.00000000E+00
  0.00000000E+00  0.00000000E+00  0.00000000E+00
  0.00000000E+00  0.00000000E+00  0.00000000E+00
  0.00000000E+00  0.00000000E+00  0.00000000E+00
  0.00000000E+00  0.00000000E+00  0.00000000E+00
  0.00000000E+00  0.00000000E+00  0.00000000E+00
  0.00000000E+00  0.00000000E+00  0.00000000E+00
  0.00000000E+00  0.00000000E+00  0.00000000E+00
  0.00000000E+00  0.00000000E+00  0.00000000E+00
  0.00000000E+00  0.00000000E+00  0.00000000E+00
  0.00000000E+00  0.00000000E+00  0.00000000E+00
  0.00000000E+00  0.00000000E+00  0.00000000E+00
  0.00000000E+00  0.00000000E+00  0.00000000E+00
  0.00000000E+00  0.00000000E+00  0.00000000E+00
  0.00000000E+00  0.00000000E+00  0.00000000E+00
  0.00000000E+00  0.00000000E+00  0.00000000E+00
  0.00000000E+00  0.00000000E+00  0.00000000E+00
  0.00000000E+00  0.00000000E+00  0.00000000E+00
  0.00000000E+00  0.00000000E+00  0.00000000E+00
  0.00000000E+00  0.00000000E+00  0.00000000E+00
  0.00000000E+00  0.00000000E+00  0.00000000E+00
  0.00000000E+00  0.00000000E+00  0.00000000E+00
