Li96 Nb32 O128
1.0
13.780611 -0.000003 -4.872182
-6.890309 11.934356 -4.872185
-0.000000 -0.000004 14.616546
Li Nb O
96 32 128
direct
1.000000 0.136557 0.257276 Li
1.000000 0.136557 0.757276 Li
1.000000 0.636557 0.257276 Li
1.000000 0.636557 0.757276 Li
0.500000 0.136557 0.257276 Li
0.500000 0.136557 0.757276 Li
0.500000 0.636557 0.257276 Li
0.500000 0.636557 0.757276 Li
0.363443 0.363443 0.120719 Li
0.363443 0.363443 0.620719 Li
0.363443 0.863443 0.120719 Li
0.363443 0.863443 0.620719 Li
0.863443 0.363443 0.120719 Li
0.863443 0.363443 0.620719 Li
0.863443 0.863443 0.120719 Li
0.863443 0.863443 0.620719 Li
0.136557 0.000000 0.257276 Li
0.136557 1.000000 0.757276 Li
0.136557 0.500000 0.257276 Li
0.136557 0.500000 0.757276 Li
0.636557 1.000000 0.257276 Li
0.636557 1.000000 0.757276 Li
0.636557 0.500000 0.257276 Li
0.636557 0.500000 0.757276 Li
1.000000 0.257276 0.136557 Li
1.000000 0.257276 0.636557 Li
1.000000 0.757276 0.136557 Li
1.000000 0.757276 0.636557 Li
0.500000 0.257276 0.136557 Li
0.500000 0.257276 0.636557 Li
0.500000 0.757276 0.136557 Li
0.500000 0.757276 0.636557 Li
0.136557 0.257276 1.000000 Li
0.136557 0.257276 0.500000 Li
0.136557 0.757276 1.000000 Li
0.136557 0.757276 0.500000 Li
0.636557 0.257276 1.000000 Li
0.636557 0.257276 0.500000 Li
0.636557 0.757276 1.000000 Li
0.636557 0.757276 0.500000 Li
0.363443 0.120719 0.363443 Li
0.363443 0.120720 0.863443 Li
0.363443 0.620719 0.363443 Li
0.363443 0.620719 0.863443 Li
0.863443 0.120720 0.363443 Li
0.863443 0.120719 0.863443 Li
0.863443 0.620719 0.363443 Li
0.863443 0.620719 0.863443 Li
0.120719 0.363443 0.363443 Li
0.120720 0.363443 0.863443 Li
0.120719 0.863443 0.363443 Li
0.120720 0.863443 0.863443 Li
0.620719 0.363443 0.363443 Li
0.620719 0.363443 0.863443 Li
0.620719 0.863443 0.363443 Li
0.620719 0.863443 0.863443 Li
0.257276 0.136557 1.000000 Li
0.257276 0.136557 0.500000 Li
0.257276 0.636557 1.000000 Li
0.257276 0.636557 0.500000 Li
0.757276 0.136557 1.000000 Li
0.757276 0.136557 0.500000 Li
0.757276 0.636557 1.000000 Li
0.757276 0.636557 0.500000 Li
0.257276 1.000000 0.136557 Li
0.257276 1.000000 0.636557 Li
0.257276 0.500000 0.136557 Li
0.257276 0.500000 0.636557 Li
0.757276 1.000000 0.136557 Li
0.757276 1.000000 0.636557 Li
0.757276 0.500000 0.136557 Li
0.757276 0.500000 0.636557 Li
0.379281 0.242724 0.242724 Li
0.379281 0.242724 0.742724 Li
0.379281 0.742724 0.242724 Li
0.379281 0.742724 0.742724 Li
0.879281 0.242724 0.242724 Li
0.879281 0.242724 0.742724 Li
0.879281 0.742724 0.242724 Li
0.879281 0.742724 0.742724 Li
0.242724 0.242724 0.379280 Li
0.242724 0.242724 0.879281 Li
0.242724 0.742724 0.379281 Li
0.242724 0.742724 0.879281 Li
0.742724 0.242724 0.379281 Li
0.742724 0.242724 0.879281 Li
0.742724 0.742724 0.379280 Li
0.742724 0.742724 0.879280 Li
0.242724 0.379281 0.242724 Li
0.242724 0.379281 0.742724 Li
0.242724 0.879281 0.242724 Li
0.242724 0.879281 0.742724 Li
0.742724 0.379281 0.242724 Li
0.742724 0.379281 0.742724 Li
0.742724 0.879281 0.242724 Li
0.742724 0.879281 0.742724 Li
0.000001 0.000000 0.358971 Nb
0.000000 1.000000 0.858971 Nb
1.000000 0.500000 0.358971 Nb
1.000000 0.500000 0.858971 Nb
0.500000 1.000000 0.358971 Nb
0.500000 1.000000 0.858972 Nb
0.500000 0.500000 0.358971 Nb
0.500000 0.500000 0.858971 Nb
0.999999 0.358971 1.000000 Nb
1.000000 0.358971 0.500000 Nb
0.999999 0.858971 1.000000 Nb
1.000000 0.858971 0.500000 Nb
0.500000 0.358972 1.000000 Nb
0.500000 0.358971 0.500000 Nb
0.500000 0.858972 1.000000 Nb
0.499999 0.858971 0.500000 Nb
0.358972 1.000000 0.000000 Nb
0.358971 1.000000 0.500000 Nb
0.358971 0.500000 0.000000 Nb
0.358972 0.500001 0.500000 Nb
0.858971 1.000000 1.000000 Nb
0.858971 1.000000 0.500000 Nb
0.858971 0.499999 0.999999 Nb
0.858972 0.500000 0.500000 Nb
0.141028 0.141028 0.141028 Nb
0.141029 0.141029 0.641029 Nb
0.141029 0.641029 0.141029 Nb
0.141029 0.641029 0.641029 Nb
0.641029 0.141029 0.141029 Nb
0.641029 0.141029 0.641029 Nb
0.641028 0.641029 0.141029 Nb
0.641029 0.641029 0.641029 Nb
0.000000 0.379295 0.256081 O
1.000000 0.379295 0.756081 O
1.000000 0.879296 0.256081 O
1.000000 0.879296 0.756081 O
0.500000 0.379295 0.256081 O
0.500000 0.379295 0.756081 O
0.500000 0.879295 0.256081 O
0.500000 0.879295 0.756081 O
0.120704 0.120704 0.376786 O
0.120704 0.120704 0.876786 O
0.120705 0.620705 0.376786 O
0.120705 0.620705 0.876786 O
0.620705 0.120705 0.376786 O
0.620705 0.120705 0.876786 O
0.620705 0.620705 0.376786 O
0.620705 0.620705 0.876786 O
0.379295 1.000000 0.256081 O
0.379295 1.000000 0.756081 O
0.379295 0.500000 0.256081 O
0.379295 0.500000 0.756081 O
0.879296 1.000000 0.256081 O
0.879296 1.000000 0.756081 O
0.879295 0.500000 0.256081 O
0.879295 0.500000 0.756081 O
1.000000 0.256081 0.379296 O
1.000000 0.256081 0.879295 O
1.000000 0.756081 0.379296 O
1.000000 0.756081 0.879296 O
0.500000 0.256081 0.379296 O
0.500000 0.256081 0.879295 O
0.500000 0.756081 0.379295 O
0.500000 0.756081 0.879295 O
0.379295 0.256081 0.000000 O
0.379296 0.256081 0.500000 O
0.379295 0.756081 0.000000 O
0.379295 0.756081 0.500000 O
0.879296 0.256081 0.000000 O
0.879295 0.256081 0.500000 O
0.879296 0.756081 1.000000 O
0.879296 0.756081 0.500000 O
0.120705 0.376786 0.120705 O
0.120705 0.376786 0.620705 O
0.120704 0.876786 0.120705 O
0.120704 0.876786 0.620704 O
0.620705 0.376786 0.120705 O
0.620705 0.376786 0.620705 O
0.620705 0.876786 0.120705 O
0.620705 0.876786 0.620705 O
0.376785 0.120705 0.120705 O
0.376785 0.120705 0.620705 O
0.376786 0.620705 0.120705 O
0.376786 0.620705 0.620705 O
0.876786 0.120704 0.120704 O
0.876785 0.120704 0.620704 O
0.876786 0.620705 0.120705 O
0.876786 0.620705 0.620705 O
0.256081 0.379295 0.000000 O
0.256081 0.379296 0.500000 O
0.256081 0.879295 1.000000 O
0.256081 0.879295 0.500000 O
0.756081 0.379295 1.000000 O
0.756081 0.379295 0.500000 O
0.756081 0.879295 1.000000 O
0.756081 0.879296 0.500000 O
0.256081 1.000000 0.379295 O
0.256081 1.000000 0.879295 O
0.256081 0.500000 0.379295 O
0.256081 0.500000 0.879295 O
0.756081 1.000000 0.379296 O
0.756081 1.000000 0.879295 O
0.756081 0.500000 0.379295 O
0.756081 0.500000 0.879295 O
0.123215 0.243919 0.243919 O
0.123215 0.243919 0.743919 O
0.123215 0.743919 0.243919 O
0.123215 0.743919 0.743919 O
0.623215 0.243919 0.243920 O
0.623215 0.243919 0.743919 O
0.623215 0.743919 0.243919 O
0.623215 0.743919 0.743919 O
0.243919 0.243919 0.123215 O
0.243919 0.243919 0.623215 O
0.243919 0.743919 0.123215 O
0.243919 0.743919 0.623215 O
0.743919 0.243919 0.123215 O
0.743919 0.243919 0.623215 O
0.743919 0.743919 0.123215 O
0.743919 0.743919 0.623215 O
0.243919 0.123215 0.243919 O
0.243919 0.123215 0.743919 O
0.243919 0.623215 0.243920 O
0.243919 0.623215 0.743919 O
0.743919 0.123215 0.243920 O
0.743919 0.123215 0.743919 O
0.743919 0.623215 0.243919 O
0.743919 0.623215 0.743919 O
0.000000 0.000000 0.114153 O
0.000000 0.000000 0.614153 O
0.000000 0.500000 0.114153 O
0.000000 0.500000 0.614153 O
0.500000 0.000000 0.114153 O
0.500000 0.000000 0.614153 O
0.500000 0.500000 0.114153 O
0.500000 0.500000 0.614153 O
0.000000 0.114153 0.000000 O
0.000000 0.114153 0.500000 O
0.000000 0.614153 1.000000 O
0.000000 0.614153 0.500000 O
0.500000 0.114153 0.000000 O
0.500000 0.114153 0.500000 O
0.500000 0.614153 0.000000 O
0.500000 0.614153 0.500000 O
0.114153 0.000000 0.000000 O
0.114153 0.000000 0.500000 O
0.114153 0.500000 0.000000 O
0.114153 0.500000 0.500000 O
0.614153 0.000000 0.000000 O
0.614153 0.000000 0.500000 O
0.614153 0.500000 0.000000 O
0.614153 0.500000 0.500000 O
0.385847 0.385847 0.385847 O
0.385847 0.385847 0.885847 O
0.385847 0.885847 0.385847 O
0.385847 0.885847 0.885847 O
0.885847 0.385847 0.385847 O
0.885847 0.385847 0.885847 O
0.885847 0.885847 0.385847 O
0.885847 0.885847 0.885847 O
