Li63 Ta65 O192                          
   1.00000000000000     
    15.0337320000000005   -0.0060940000000000   -0.0057460000000000
     0.9606630000000000   15.0030490000000007   -0.0057500000000000
     0.9606080000000000    0.9007180000000000   14.9759290000000007
   Li   Ta   O 
    63    65   192
Direct
  0.3874064309084844  0.3904967179985590  0.8893696244993663
  0.3910338708087906  0.8898404434976754  0.3880180246654490
  0.3897856739082357  0.8902582386083324  0.8899394036354167
  0.8891233641215592  0.3874179777850912  0.3894655298525009
  0.8898282168306508  0.3898307973987585  0.8902661556217097
  0.8905343710086626  0.8898984742430898  0.3897992142986695
  0.8900059052421696  0.8901313203490702  0.8899362792240240
  0.1374035486319869  0.3876633834426713  0.1381015942509976
  0.1387205332576045  0.3887654810070273  0.6421294146840211
  0.1395654901939096  0.8901476325375910  0.1396488362218662
  0.1394194993554976  0.8905918444643746  0.6402519817604642
  0.6413336052281409  0.3891983247017734  0.1395029294055519
  0.6411247143608989  0.3889990328784236  0.6432223059764652
  0.6401392203262333  0.8896569864509587  0.1395630625500388
  0.6401234582351023  0.8898196371930283  0.6402024661940189
  0.3863724178922254  0.1365211007462221  0.1365002516291725
  0.3887867471079076  0.1395661008508000  0.6407032713147132
  0.3883758087769991  0.6414013539507053  0.1387704157555518
  0.3887974963021534  0.6430613687505868  0.6417091908037875
  0.8898389635771480  0.1394766749690959  0.1396284904080005
  0.8899273250748010  0.1397598933220507  0.6401774308106596
  0.8895699613006229  0.6404954958803870  0.1392545076266600
  0.8902601783039970  0.6401954207040390  0.6402040276786423
  0.1383528211991774  0.1381284550785793  0.3864953811988556
  0.1393814214820281  0.1399090157417646  0.8898653030367072
  0.1390081135882610  0.6423044847368402  0.3880063308776656
  0.1394653965661732  0.6406783935843805  0.8900742900464067
  0.6415561389070987  0.1385436021401887  0.3886315242625002
  0.6405602897568201  0.1389994738036009  0.8899821920789464
  0.6413874184637720  0.6404174160566427  0.3895059437133384
  0.6401851969983383  0.6401634890559080  0.8899707769547049
  0.1395868540459020  0.1394644804492984  0.1396864729195357
  0.1384797329003291  0.1385643660502822  0.6424427555273837
  0.1379219691938971  0.6422163882026979  0.1384002509067983
  0.1392028101221356  0.6418274617930066  0.6429931784949616
  0.6434697944231118  0.1368634018421702  0.1374229989558700
  0.6414391385843103  0.1390231404707265  0.6403245703262357
  0.6399879158858752  0.6405083708194468  0.1394028810048837
  0.6404683771987933  0.6407226298369153  0.6407198871337059
  0.3877235783994237  0.1379836015197995  0.3866280164999907
  0.3888510635641040  0.1378203662574720  0.8892574380225113
  0.3885711002856240  0.6413170412384659  0.3896698344865897
  0.3895020725967626  0.6403160815786535  0.8909279920626361
  0.8897704715373038  0.1402213700348653  0.3892653802787365
  0.8903001435904940  0.1396079273974848  0.8898362744917065
  0.8895841048860618  0.6422472304459461  0.3893493710348181
  0.8899262984543270  0.6399306516950887  0.8898271359906431
  0.1360747465171741  0.3880502882440737  0.3861170196546198
  0.1400177189278864  0.3894872124074737  0.8900116814033723
  0.1379710817967421  0.8903254150410547  0.3891918016912612
  0.1396380365996208  0.8899588091604258  0.8903454615561515
  0.6441892192398910  0.3894607291537966  0.3893903613161598
  0.6419649607923930  0.3895988067653207  0.8896329228695450
  0.6399509173647573  0.8902368698151406  0.3897596355229922
  0.6399195572957197  0.8896596977971143  0.8898303009655777
  0.3862882765574867  0.3872591252095674  0.1372524302466900
  0.3881812249563481  0.3891103956295012  0.6431569293554844
  0.3894540545151628  0.8894482533428487  0.1399372343825718
  0.3896830872854764  0.8900756806499501  0.6417792651650345
  0.8893214654548700  0.3890790601863188  0.1383152325108341
  0.8908121176613903  0.3895475596218176  0.6402504704228846
  0.8898256872603696  0.8901783593560708  0.1396657617232719
  0.8899900726558556  0.8902390955581296  0.6398801231355193
  0.4020159219852673  0.3920477438654402  0.3945223459327849
  0.2479034380154275  0.2480324905447731  0.2473473451363546
  0.2483014271000670  0.2479743585710992  0.7485850493872590
  0.2475193380001457  0.7486352753264143  0.2484463964976271
  0.2479255209422462  0.7485696657852898  0.7488161106216111
  0.7487006491534700  0.2480180047985741  0.2476454020417549
  0.7487413454182033  0.2478514256018016  0.7481072279851873
  0.7478573443474730  0.7483622370560425  0.2480295437813425
  0.7482764545450920  0.7482124493086602  0.7482253448478247
  0.5000979719590788  0.2433946614066897  0.4979580639461787
  0.4975066075678427  0.2490132777482614  0.9930470130693152
  0.4979960165772042  0.7492041300139789  0.4985176243077234
  0.4980339830987006  0.7482345435008710  0.9983966698547349
  0.9983716100130309  0.2481659194911288  0.4981170203587482
  0.9983556164715495  0.2481627162347451  0.9979705115971456
  0.9982421648627522  0.7485996286596617  0.4985295924073085
  0.9978021313175134  0.7485350215781708  0.9980453690843802
  0.2407441127701091  0.5003752033743609  0.5009688803255514
  0.2477988852304449  0.4985257495566557  0.9983778001522055
  0.2489292958658638  0.9965954814319957  0.4979918461819395
  0.2480391414114678  0.9981059175536018  0.9984940837178229
  0.7493013545730562  0.4983355159778853  0.4985291244077814
  0.7484071021690895  0.4982425448316263  0.9982238918006345
  0.7485328228783530  0.9981399344008537  0.4980041293471515
  0.7486126333326979  0.9976735849596139  0.9978366233119687
  0.4967508526589555  0.4984278788689878  0.2427389970185345
  0.4981953184395493  0.4984705096799971  0.7498533689080062
  0.4983884415556261  0.9971280229459936  0.2477887356835140
  0.4983282107008264  0.9982597302303517  0.7483633084156978
  0.9942262436746745  0.4980674126074049  0.2484336347573475
  0.9983212974351545  0.4981646352182096  0.7485810557590042
  0.9979020726953749  0.9985386017917861  0.2480855980464369
  0.9980495393985649  0.9980351518341735  0.7484639849517833
  0.5017719244393817  0.5013823954622936  0.5044011624874116
  0.4987844131527126  0.4977528246482734  0.9969498908155146
  0.4982156713516233  0.9971130734574345  0.4987827884115816
  0.4984676698374102  0.9979000307490367  0.9980530079494727
  0.9964446290448166  0.4988234202101935  0.4972506428214558
  0.9981843062570803  0.4984399088800231  0.9980701624870392
  0.9983302074244946  0.9987244422779966  0.4982313454765119
  0.9981987919879671  0.9983048529479035  0.9982474532584860
  0.2407668802559897  0.5001450299136252  0.2461631162727187
  0.2476895257652387  0.4988364191799448  0.7487480244462006
  0.2480361701538527  0.9981038639518829  0.2481677501973678
  0.2478396556020925  0.9984046789619327  0.7486162406712609
  0.7468867591931954  0.4983564385752928  0.2479255007325776
  0.7485304219278461  0.4983397531879845  0.7483923030177309
  0.7483825629360865  0.9976088115211823  0.2481850365409244
  0.7481661194428355  0.9979708569259742  0.7482259705911858
  0.5009682719469097  0.2435573275341838  0.2380449746092310
  0.4987531822163191  0.2477580659933665  0.7466873047775522
  0.4981525030076739  0.7472702096149106  0.2482247593990792
  0.4982526377917367  0.7483928028715638  0.7487041113850452
  0.9982293874347690  0.2480935481692939  0.2477401937955790
  0.9979324494470561  0.2482287277005994  0.7483094500197538
  0.9978140420827515  0.7487018174913302  0.2477641418449323
  0.9977845913802028  0.7486559139175384  0.7481859241242290
  0.2455906538295594  0.2431090269040013  0.4994911982004240
  0.2479609149537296  0.2481539317702968  0.9980137362716874
  0.2483958281781611  0.7498780079639289  0.4980340832058943
  0.2479909531179842  0.7485521927412009  0.9982004185791666
  0.7482646443869712  0.2477986753744830  0.4983824889836015
  0.7485555836683702  0.2478214368696001  0.9980216836432021
  0.7484464320159177  0.7484015069815086  0.4981951512346257
  0.7481885330982223  0.7480287976422915  0.9980855680802847
  0.2071779520622172  0.3682172205023235  0.2703876232771734
  0.2087839612733191  0.3687893585364819  0.7700880602037685
  0.2079387534221766  0.8685038265854317  0.2715624859553714
  0.2083543455792167  0.8689339796941908  0.7709523895677535
  0.7076663558533056  0.3682039664331711  0.2700170145361938
  0.7085773771103945  0.3686302525987699  0.7696902798937373
  0.7076399070080726  0.8684545371005896  0.2706372245979765
  0.7082600770834944  0.8686284231445214  0.7703450959247178
  0.4583015079247019  0.3680164575586176  0.0214065055932977
  0.4558022054069468  0.3698924114803432  0.5234766131819697
  0.4584626930029785  0.8683185155990003  0.0213123852665191
  0.4574276693648542  0.8688227127470967  0.5216589629762467
  0.9585046136157445  0.3685990695957884  0.0202808144826534
  0.9585166717718749  0.3687485080078901  0.5200022246178051
  0.9581065954692320  0.8687494079225999  0.0207261837913748
  0.9587842018848889  0.8688407782399210  0.5205953806374737
  0.2085013411162180  0.1186150791754130  0.0207923467236597
  0.2086821296176424  0.1187746812230372  0.5219978237733045
  0.2081401487223076  0.6186590874835218  0.0211128908269913
  0.2079595300511912  0.6191051649797643  0.5229313688283099
  0.7085117420305735  0.1184523733784033  0.0195562360575892
  0.7077635280682486  0.1190764958707291  0.5197754399945467
  0.7082886374675041  0.6183840699353524  0.0207628595595040
  0.7085410309674600  0.6183829453253367  0.5204648898434243
  0.4580731967471507  0.1180976672578353  0.2702795559567406
  0.4582440232529166  0.1188804790613247  0.7709156243005140
  0.4572918975664280  0.6162193235543540  0.2728424943132168
  0.4586325955285844  0.6185598183664709  0.7725252308137982
  0.9576481567265205  0.1188263524419853  0.2704273191742743
  0.9585064853070264  0.1187211177056042  0.7703319311835770
  0.9573711946106727  0.6186069163417756  0.2708194646597661
  0.9585801111398951  0.6185802671502003  0.7703504881969110
  0.2702465922032431  0.2081623347226156  0.3679485816094328
  0.2711342020443936  0.2082174371422596  0.8683508479070596
  0.2691993586523225  0.7074916327961773  0.3691865785678132
  0.2703825000968010  0.7082695287901473  0.8688572198754159
  0.7702438387112878  0.2087215170779970  0.3684258007400558
  0.7712158111112970  0.2084869691466196  0.8683530024058044
  0.7698910381171800  0.7082458510594165  0.3686864103098983
  0.7704902561044875  0.7081603058815915  0.8685976678253553
  0.0207567154532242  0.2083907981670592  0.1183660587425095
  0.0212570525426230  0.2085026545764848  0.6180643068504637
  0.0198027612774894  0.7083141694340185  0.1186482454751996
  0.0207892441813726  0.7083179457751712  0.6185517673451244
  0.5221734033855370  0.2061527294310324  0.1161793869660599
  0.5219565994955460  0.2076362123689179  0.6192114127326178
  0.5196213853904439  0.7070283202502452  0.1192387367444354
  0.5201064150607593  0.7082743584952880  0.6186683362202032
  0.2705758426134821  0.4584058623317659  0.1189733414547405
  0.2716949679544811  0.4584786151254079  0.6174284594430404
  0.2703462999350918  0.9578937074092053  0.1189256159650185
  0.2708473005167136  0.9583006177384519  0.6183030362422883
  0.7705954721310491  0.4581388800655546  0.1189409176669898
  0.7721188725491004  0.4587231728330039  0.6184657402913416
  0.7705775817038614  0.9582667888561573  0.1185491317069989
  0.7706334273239364  0.9585896266763783  0.6183494083365986
  0.0206551182873866  0.4583240007858791  0.3681255971082606
  0.0213711539093779  0.4584721435842454  0.8685549540694026
  0.0202448254352063  0.9586461445903751  0.3685946931894009
  0.0207858378211156  0.9582382521696786  0.8686278853560481
  0.5208611003314445  0.4546895391221781  0.3714097323963017
  0.5214772854111729  0.4572893426883979  0.8694517141029365
  0.5198076653099406  0.9580174480848527  0.3688192673659501
  0.5204824028466390  0.9580073972207117  0.8686459237406794
  0.3683113895130461  0.2700532163320162  0.2069249279131355
  0.3686557431590316  0.2698205053980303  0.7075310582941938
  0.3683186964683856  0.7696270901234854  0.2090773454770058
  0.3685915280700485  0.7700658232293023  0.7085640335433183
  0.8684379487209526  0.2709117752279653  0.2078292383937921
  0.8688575986547562  0.2704164651236312  0.7075175735682464
  0.8682509855913523  0.7708674734247936  0.2085292573678430
  0.8686765598442392  0.7706614433478975  0.7080230610816614
  0.1194267888417286  0.2724321824533362  0.4578554990813402
  0.1187330679897585  0.2703544167550973  0.9575759891886122
  0.1191704636705211  0.7707591940106440  0.4585369747502810
  0.1184871844555104  0.7705484168202545  0.9585377810955649
  0.6173394110424510  0.2728728904791708  0.4568315435875405
  0.6184663091420504  0.2706186911903927  0.9574388072688436
  0.6182077111562876  0.7709865223748338  0.4588020237324386
  0.6184253296200168  0.7703268291429595  0.9586945321645786
  0.3685815164889021  0.0217460694559506  0.4583760077944206
  0.3685213512719088  0.0202055418468774  0.9586504812093963
  0.3676748631664850  0.5160828655243819  0.4531595166783760
  0.3685978515698523  0.5199532201137629  0.9585725664586207
  0.8687212609547217  0.0213845029665407  0.4584816159754794
  0.8687746171378663  0.0205545909662490  0.9579811531815423
  0.8695297389899821  0.5218355605995058  0.4580255890295390
  0.8686462817412206  0.5204363310207114  0.9581573777057528
  0.1184404241112915  0.0205394141555786  0.2086093223495524
  0.1186193253543664  0.0201253912771193  0.7081399556087931
  0.1169310454090535  0.5215299188641680  0.2076490070368493
  0.1190036227747129  0.5202091322530293  0.7074367879949861
  0.6184144035473480  0.0202006697849839  0.2081400489694971
  0.6185321801338688  0.0206854573789741  0.7082807229576744
  0.6184171282209689  0.5203438820327833  0.2084775794087079
  0.6183225033307593  0.5204941055515917  0.7088187005349980
  0.2077200497526306  0.2707305559513529  0.1182055172620409
  0.2085560868086205  0.2727116696804330  0.6175293295620747
  0.2083235793855707  0.7705101148584745  0.1190049462777409
  0.2089349364210378  0.7716921111547634  0.6182356559392090
  0.7075438089344814  0.2697953939920907  0.1184993790090658
  0.7078626014118115  0.2704221938878959  0.6183158660934183
  0.7080145762746213  0.7700589573437568  0.1187483242732981
  0.7084154861956051  0.7704482101040782  0.6184802944692507
  0.4536405275244348  0.2701234321833965  0.3645562471245540
  0.4575563983919722  0.2719113221987328  0.8679946481904750
  0.4581874363994274  0.7696852786802495  0.3690045989458781
  0.4584470635518656  0.7709229466371283  0.8690555822262809
  0.9585816596494681  0.2704777859417433  0.3683637226282741
  0.9582052566274939  0.2707810511516868  0.8684050403699146
  0.9587239465666144  0.7701444753490634  0.3687041221853704
  0.9581649353119488  0.7708290015173276  0.8685768461705621
  0.2085485576864770  0.0211627899467999  0.3687582317006530
  0.2083428391914239  0.0212530650481284  0.8686542795961927
  0.2073812488595408  0.5201486317684498  0.3689138364188977
  0.2082062236687818  0.5212417767041799  0.8686475619656804
  0.7081484119053059  0.0200924233041562  0.3685842593901754
  0.7082801660338376  0.0203473944696171  0.8684786904000603
  0.7071553230802010  0.5191980153375226  0.3693827352982950
  0.7082327058726818  0.5202206335486963  0.8688118542525700
  0.4582634108029069  0.0201679315046661  0.1186358144167272
  0.4581961470446885  0.0213686942774487  0.6184707844777435
  0.4576842382760447  0.5215529031995843  0.1184832390685884
  0.4566808409717567  0.5246024808339484  0.6205711451773510
  0.9580886005862084  0.0207273607946803  0.1186391185417790
  0.9585357787816591  0.0211000814672673  0.6183527686358445
  0.9574329628613469  0.5206129768211980  0.1185853739650540
  0.9594272875926890  0.5204658994970686  0.6178271912858477
  0.1184065433547445  0.2077824288284020  0.2700734611186704
  0.1188318826473136  0.2085237027792530  0.7697560962682175
  0.1183646992655838  0.7076978989363241  0.2698075872964836
  0.1185970782736945  0.7085110657366940  0.7700290959922995
  0.6180210580605419  0.2075347444207480  0.2713532231756091
  0.6184996596537360  0.2089545744454497  0.7711951154394043
  0.6183031317812322  0.7073397543187028  0.2707013068053499
  0.6186657272716758  0.7083963471514352  0.7704815060517234
  0.3685422216676741  0.2083182466455895  0.0204093904614453
  0.3687825461766536  0.2092179751548358  0.5187547497968268
  0.3684193744521451  0.7081593265745312  0.0203438599686550
  0.3683848562836332  0.7069842636561106  0.5198134647720210
  0.8686398849363357  0.2083757664857515  0.0208011281481930
  0.8686748993888216  0.2090831959943316  0.5204457457432312
  0.8684926841829466  0.7081593491837239  0.0205277269343469
  0.8690344402887931  0.7080891617044145  0.5201693142564068
  0.1185362432472061  0.4584012019899646  0.0209957240501311
  0.1198133575565663  0.4555253068704701  0.5197216262652233
  0.1185764861376342  0.9582479906773074  0.0206816231437585
  0.1190963243080674  0.9584647289454011  0.5200969625161989
  0.6183858603197123  0.4581824685113105  0.0215555990053673
  0.6191372203892627  0.4586336662683550  0.5254056791976467
  0.6186653946510958  0.9582434140266542  0.0207083956477092
  0.6184767282711263  0.9579060902414724  0.5207506438250817
  0.3653361679848857  0.4539668782800064  0.2723546975492965
  0.3684474852799866  0.4586189091622046  0.7705972855460956
  0.3683965274285512  0.9579677741353407  0.2705288390619884
  0.3684368653649770  0.9587470833610752  0.7703680236763475
  0.8678733091861659  0.4577390151828880  0.2717553171973748
  0.8689868851060183  0.4585950366452778  0.7707584769168250
  0.8685219249067160  0.9579322843464197  0.2708012761656562
  0.8686679741404078  0.9583675697633893  0.7704394512689063
  0.2702504243885429  0.1183388010516495  0.2077907912404555
  0.2697865154525658  0.1189580845892237  0.7074086801843720
  0.2711881581432678  0.6179858716768010  0.2085658400801123
  0.2701322116369553  0.6189210074691971  0.7081545937929761
  0.7700185243065434  0.1183943902903977  0.2081596482426988
  0.7701294382250907  0.1186977405357013  0.7079743575553294
  0.7706517529594450  0.6181939118414661  0.2088559334493141
  0.7707115262579123  0.6185916871044270  0.7082390087135906
  0.0215832619358522  0.1191101574768609  0.4580496146223751
  0.0205286482717426  0.1186589741416739  0.9580783908071950
  0.0223940907194589  0.6181288627488897  0.4584838522679604
  0.0206329618064132  0.6186604674218472  0.9582992986982575
  0.5224275687272524  0.1181122225485538  0.4584630385773991
  0.5203201771814534  0.1184424917982554  0.9574529935287828
  0.5217584201245486  0.6183704656044711  0.4584035915197759
  0.5206946207670740  0.6180891915903075  0.9584022908384640
  0.2794977858935965  0.3672266596318821  0.4540342327870093
  0.2701252604596860  0.3687248036664812  0.9582424025193603
  0.2725008688924220  0.8692081059037235  0.4576171135689933
  0.2705401123640385  0.8686909114884784  0.9582608215751165
  0.7699025761297662  0.3689576252368099  0.4584904088185411
  0.7702686724281804  0.3684907909898598  0.9584437549454847
  0.7710657145878415  0.8687149525822235  0.4583676455771339
  0.7706720161353715  0.8684171161582199  0.9581695613252208
  0.0202707858972531  0.3686896339436174  0.2081919307891695
  0.0202691672411106  0.3686890680728112  0.7081512167470549
  0.0206762150186250  0.8687062053270580  0.2083213419649752
  0.0204983841848545  0.8687916184787383  0.7079589018252292
  0.5200914575698761  0.3675218097290056  0.2077811668096246
  0.5194885309538648  0.3691676498560454  0.7078348845030717
  0.5205212970214959  0.8675981314906736  0.2088769433602735
  0.5202170933669947  0.8688045367084030  0.7083547842472697
 
  0.00000000E+00  0.00000000E+00  0.00000000E+00
  0.00000000E+00  0.00000000E+00  0.00000000E+00
  0.00000000E+00  0.00000000E+00  0.00000000E+00
  0.00000000E+00  0.00000000E+00  0.00000000E+00
  0.00000000E+00  0.00000000E+00  0.00000000E+00
  0.00000000E+00  0.00000000E+00  0.00000000E+00
  0.00000000E+00  0.00000000E+00  0.00000000E+00
  0.00000000E+00  0.00000000E+00  0.00000000E+00
  0.00000000E+00  0.00000000E+00  0.00000000E+00
  0.00000000E+00  0.00000000E+00  0.00000000E+00
  0.00000000E+00  0.00000000E+00  0.00000000E+00
  0.00000000E+00  0.00000000E+00  0.00000000E+00
  0.00000000E+00  0.00000000E+00  0.00000000E+00
  0.00000000E+00  0.00000000E+00  0.00000000E+00
  0.00000000E+00  0.00000000E+00  0.00000000E+00
  0.00000000E+00  0.00000000E+00  0.00000000E+00
  0.00000000E+00  0.00000000E+00  0.00000000E+00
  0.00000000E+00  0.00000000E+00  0.00000000E+00
  0.00000000E+00  0.00000000E+00  0.00000000E+00
  0.00000000E+00  0.00000000E+00  0.00000000E+00
  0.00000000E+00  0.00000000E+00  0.00000000E+00
  0.00000000E+00  0.00000000E+00  0.00000000E+00
  0.00000000E+00  0.00000000E+00  0.00000000E+00
  0.00000000E+00  0.00000000E+00  0.00000000E+00
  0.00000000E+00  0.00000000E+00  0.00000000E+00
  0.00000000E+00  0.00000000E+00  0.00000000E+00
  0.00000000E+00  0.00000000E+00  0.00000000E+00
  0.00000000E+00  0.00000000E+00  0.00000000E+00
  0.00000000E+00  0.00000000E+00  0.00000000E+00
  0.00000000E+00  0.00000000E+00  0.00000000E+00
  0.00000000E+00  0.00000000E+00  0.00000000E+00
  0.00000000E+00  0.00000000E+00  0.00000000E+00
  0.00000000E+00  0.00000000E+00  0.00000000E+00
  0.00000000E+00  0.00000000E+00  0.00000000E+00
  0.00000000E+00  0.00000000E+00  0.00000000E+00
  0.00000000E+00  0.00000000E+00  0.00000000E+00
  0.00000000E+00  0.00000000E+00  0.00000000E+00
  0.00000000E+00  0.00000000E+00  0.00000000E+00
  0.00000000E+00  0.00000000E+00  0.00000000E+00
  0.00000000E+00  0.00000000E+00  0.00000000E+00
  0.00000000E+00  0.00000000E+00  0.00000000E+00
  0.00000000E+00  0.00000000E+00  0.00000000E+00
  0.00000000E+00  0.00000000E+00  0.00000000E+00
  0.00000000E+00  0.00000000E+00  0.00000000E+00
  0.00000000E+00  0.00000000E+00  0.00000000E+00
  0.00000000E+00  0.00000000E+00  0.00000000E+00
  0.00000000E+00  0.00000000E+00  0.00000000E+00
  0.00000000E+00  0.00000000E+00  0.00000000E+00
  0.00000000E+00  0.00000000E+00  0.00000000E+00
  0.00000000E+00  0.00000000E+00  0.00000000E+00
  0.00000000E+00  0.00000000E+00  0.00000000E+00
  0.00000000E+00  0.00000000E+00  0.00000000E+00
  0.00000000E+00  0.00000000E+00  0.00000000E+00
  0.00000000E+00  0.00000000E+00  0.00000000E+00
  0.00000000E+00  0.00000000E+00  0.00000000E+00
  0.00000000E+00  0.00000000E+00  0.00000000E+00
  0.00000000E+00  0.00000000E+00  0.00000000E+00
  0.00000000E+00  0.00000000E+00  0.00000000E+00
  0.00000000E+00  0.00000000E+00  0.00000000E+00
  0.00000000E+00  0.00000000E+00  0.00000000E+00
  0.00000000E+00  0.00000000E+00  0.00000000E+00
  0.00000000E+00  0.00000000E+00  0.00000000E+00
  0.00000000E+00  0.00000000E+00  0.00000000E+00
  0.00000000E+00  0.00000000E+00  0.00000000E+00
  0.00000000E+00  0.00000000E+00  0.00000000E+00
  0.00000000E+00  0.00000000E+00  0.00000000E+00
  0.00000000E+00  0.00000000E+00  0.00000000E+00
  0.00000000E+00  0.00000000E+00  0.00000000E+00
  0.00000000E+00  0.00000000E+00  0.00000000E+00
  0.00000000E+00  0.00000000E+00  0.00000000E+00
  0.00000000E+00  0.00000000E+00  0.00000000E+00
  0.00000000E+00  0.00000000E+00  0.00000000E+00
  0.00000000E+00  0.00000000E+00  0.00000000E+00
  0.00000000E+00  0.00000000E+00  0.00000000E+00
  0.00000000E+00  0.00000000E+00  0.00000000E+00
  0.00000000E+00  0.00000000E+00  0.00000000E+00
  0.00000000E+00  0.00000000E+00  0.00000000E+00
  0.00000000E+00  0.00000000E+00  0.00000000E+00
  0.00000000E+00  0.00000000E+00  0.00000000E+00
  0.00000000E+00  0.00000000E+00  0.00000000E+00
  0.00000000E+00  0.00000000E+00  0.00000000E+00
  0.00000000E+00  0.00000000E+00  0.00000000E+00
  0.00000000E+00  0.00000000E+00  0.00000000E+00
  0.00000000E+00  0.00000000E+00  0.00000000E+00
  0.00000000E+00  0.00000000E+00  0.00000000E+00
  0.00000000E+00  0.00000000E+00  0.00000000E+00
  0.00000000E+00  0.00000000E+00  0.00000000E+00
  0.00000000E+00  0.00000000E+00  0.00000000E+00
  0.00000000E+00  0.00000000E+00  0.00000000E+00
  0.00000000E+00  0.00000000E+00  0.00000000E+00
  0.00000000E+00  0.00000000E+00  0.00000000E+00
  0.00000000E+00  0.00000000E+00  0.00000000E+00
  0.00000000E+00  0.00000000E+00  0.00000000E+00
  0.00000000E+00  0.00000000E+00  0.00000000E+00
  0.00000000E+00  0.00000000E+00  0.00000000E+00
  0.00000000E+00  0.00000000E+00  0.00000000E+00
  0.00000000E+00  0.00000000E+00  0.00000000E+00
  0.00000000E+00  0.00000000E+00  0.00000000E+00
  0.00000000E+00  0.00000000E+00  0.00000000E+00
  0.00000000E+00  0.00000000E+00  0.00000000E+00
  0.00000000E+00  0.00000000E+00  0.00000000E+00
  0.00000000E+00  0.00000000E+00  0.00000000E+00
  0.00000000E+00  0.00000000E+00  0.00000000E+00
  0.00000000E+00  0.00000000E+00  0.00000000E+00
  0.00000000E+00  0.00000000E+00  0.00000000E+00
  0.00000000E+00  0.00000000E+00  0.00000000E+00
  0.00000000E+00  0.00000000E+00  0.00000000E+00
  0.00000000E+00  0.00000000E+00  0.00000000E+00
  0.00000000E+00  0.00000000E+00  0.00000000E+00
  0.00000000E+00  0.00000000E+00  0.00000000E+00
  0.00000000E+00  0.00000000E+00  0.00000000E+00
  0.00000000E+00  0.00000000E+00  0.00000000E+00
  0.00000000E+00  0.00000000E+00  0.00000000E+00
  0.00000000E+00  0.00000000E+00  0.00000000E+00
  0.00000000E+00  0.00000000E+00  0.00000000E+00
  0.00000000E+00  0.00000000E+00  0.00000000E+00
  0.00000000E+00  0.00000000E+00  0.00000000E+00
  0.00000000E+00  0.00000000E+00  0.00000000E+00
  0.00000000E+00  0.00000000E+00  0.00000000E+00
  0.00000000E+00  0.00000000E+00  0.00000000E+00
  0.00000000E+00  0.00000000E+00  0.00000000E+00
  0.00000000E+00  0.00000000E+00  0.00000000E+00
  0.00000000E+00  0.00000000E+00  0.00000000E+00
  0.00000000E+00  0.00000000E+00  0.00000000E+00
  0.00000000E+00  0.00000000E+00  0.00000000E+00
  0.00000000E+00  0.00000000E+00  0.00000000E+00
  0.00000000E+00  0.00000000E+00  0.00000000E+00
  0.00000000E+00  0.00000000E+00  0.00000000E+00
  0.00000000E+00  0.00000000E+00  0.00000000E+00
  0.00000000E+00  0.00000000E+00  0.00000000E+00
  0.00000000E+00  0.00000000E+00  0.00000000E+00
  0.00000000E+00  0.00000000E+00  0.00000000E+00
  0.00000000E+00  0.00000000E+00  0.00000000E+00
  0.00000000E+00  0.00000000E+00  0.00000000E+00
  0.00000000E+00  0.00000000E+00  0.00000000E+00
  0.00000000E+00  0.00000000E+00  0.00000000E+00
  0.00000000E+00  0.00000000E+00  0.00000000E+00
  0.00000000E+00  0.00000000E+00  0.00000000E+00
  0.00000000E+00  0.00000000E+00  0.00000000E+00
  0.00000000E+00  0.00000000E+00  0.00000000E+00
  0.00000000E+00  0.00000000E+00  0.00000000E+00
  0.00000000E+00  0.00000000E+00  0.00000000E+00
  0.00000000E+00  0.00000000E+00  0.00000000E+00
  0.00000000E+00  0.00000000E+00  0.00000000E+00
  0.00000000E+00  0.00000000E+00  0.00000000E+00
  0.00000000E+00  0.00000000E+00  0.00000000E+00
  0.00000000E+00  0.00000000E+00  0.00000000E+00
  0.00000000E+00  0.00000000E+00  0.00000000E+00
  0.00000000E+00  0.00000000E+00  0.00000000E+00
  0.00000000E+00  0.00000000E+00  0.00000000E+00
  0.00000000E+00  0.00000000E+00  0.00000000E+00
  0.00000000E+00  0.00000000E+00  0.00000000E+00
  0.00000000E+00  0.00000000E+00  0.00000000E+00
  0.00000000E+00  0.00000000E+00  0.00000000E+00
  0.00000000E+00  0.00000000E+00  0.00000000E+00
  0.00000000E+00  0.00000000E+00  0.00000000E+00
  0.00000000E+00  0.00000000E+00  0.00000000E+00
  0.00000000E+00  0.00000000E+00  0.00000000E+00
  0.00000000E+00  0.00000000E+00  0.00000000E+00
  0.00000000E+00  0.00000000E+00  0.00000000E+00
  0.00000000E+00  0.00000000E+00  0.00000000E+00
  0.00000000E+00  0.00000000E+00  0.00000000E+00
  0.00000000E+00  0.00000000E+00  0.00000000E+00
  0.00000000E+00  0.00000000E+00  0.00000000E+00
  0.00000000E+00  0.00000000E+00  0.00000000E+00
  0.00000000E+00  0.00000000E+00  0.00000000E+00
  0.00000000E+00  0.00000000E+00  0.00000000E+00
  0.00000000E+00  0.00000000E+00  0.00000000E+00
  0.00000000E+00  0.00000000E+00  0.00000000E+00
  0.00000000E+00  0.00000000E+00  0.00000000E+00
  0.00000000E+00  0.00000000E+00  0.00000000E+00
  0.00000000E+00  0.00000000E+00  0.00000000E+00
  0.00000000E+00  0.00000000E+00  0.00000000E+00
  0.00000000E+00  0.00000000E+00  0.00000000E+00
  0.00000000E+00  0.00000000E+00  0.00000000E+00
  0.00000000E+00  0.00000000E+00  0.00000000E+00
  0.00000000E+00  0.00000000E+00  0.00000000E+00
  0.00000000E+00  0.00000000E+00  0.00000000E+00
  0.00000000E+00  0.00000000E+00  0.00000000E+00
  0.00000000E+00  0.00000000E+00  0.00000000E+00
  0.00000000E+00  0.00000000E+00  0.00000000E+00
  0.00000000E+00  0.00000000E+00  0.00000000E+00
  0.00000000E+00  0.00000000E+00  0.00000000E+00
  0.00000000E+00  0.00000000E+00  0.00000000E+00
  0.00000000E+00  0.00000000E+00  0.00000000E+00
  0.00000000E+00  0.00000000E+00  0.00000000E+00
  0.00000000E+00  0.00000000E+00  0.00000000E+00
  0.00000000E+00  0.00000000E+00  0.00000000E+00
  0.00000000E+00  0.00000000E+00  0.00000000E+00
  0.00000000E+00  0.00000000E+00  0.00000000E+00
  0.00000000E+00  0.00000000E+00  0.00000000E+00
  0.00000000E+00  0.00000000E+00  0.00000000E+00
  0.00000000E+00  0.00000000E+00  0.00000000E+00
  0.00000000E+00  0.00000000E+00  0.00000000E+00
  0.00000000E+00  0.00000000E+00  0.00000000E+00
  0.00000000E+00  0.00000000E+00  0.00000000E+00
  0.00000000E+00  0.00000000E+00  0.00000000E+00
  0.00000000E+00  0.00000000E+00  0.00000000E+00
  0.00000000E+00  0.00000000E+00  0.00000000E+00
  0.00000000E+00  0.00000000E+00  0.00000000E+00
  0.00000000E+00  0.00000000E+00  0.00000000E+00
  0.00000000E+00  0.00000000E+00  0.00000000E+00
  0.00000000E+00  0.00000000E+00  0.00000000E+00
  0.00000000E+00  0.00000000E+00  0.00000000E+00
  0.00000000E+00  0.00000000E+00  0.00000000E+00
  0.00000000E+00  0.00000000E+00  0.00000000E+00
  0.00000000E+00  0.00000000E+00  0.00000000E+00