Li96 Ta32 O128
1.0
11.380506 0.006756 -3.844840
1.311772 11.304654 3.844841
-0.028021 0.031443 18.591241
Li Ta O
96 32 128
direct
0.284096 0.097746 0.442870 Li
0.284096 0.097746 0.942870 Li
0.284096 0.597746 0.442870 Li
0.284096 0.597746 0.942870 Li
0.784096 0.097746 0.442870 Li
0.784096 0.097746 0.942870 Li
0.784096 0.597746 0.442870 Li
0.784096 0.597746 0.942870 Li
0.097746 0.284096 0.307130 Li
0.097746 0.284096 0.807130 Li
0.097746 0.784096 0.307130 Li
0.097746 0.784096 0.807130 Li
0.597746 0.284096 0.307130 Li
0.597746 0.284096 0.807130 Li
0.597746 0.784096 0.307130 Li
0.597746 0.784096 0.807130 Li
0.215904 0.402254 0.057130 Li
0.215904 0.402254 0.557130 Li
0.215904 0.902254 0.057130 Li
0.215905 0.902254 0.557130 Li
0.715904 0.402254 0.057130 Li
0.715904 0.402254 0.557130 Li
0.715905 0.902254 0.057130 Li
0.715905 0.902254 0.557130 Li
0.402254 0.215904 0.192870 Li
0.402254 0.215904 0.692870 Li
0.402254 0.715905 0.192870 Li
0.402254 0.715905 0.692870 Li
0.902254 0.215905 0.192870 Li
0.902254 0.215905 0.692870 Li
0.902254 0.715905 0.192870 Li
0.902254 0.715905 0.692870 Li
0.177566 0.219465 0.187420 Li
0.177566 0.219465 0.687420 Li
0.177565 0.719465 0.187420 Li
0.177565 0.719465 0.687420 Li
0.677566 0.219465 0.187420 Li
0.677566 0.219465 0.687420 Li
0.677566 0.719465 0.187420 Li
0.677566 0.719465 0.687420 Li
0.219465 0.177566 0.062580 Li
0.219465 0.177566 0.562580 Li
0.219465 0.677566 0.062580 Li
0.219465 0.677566 0.562580 Li
0.719465 0.177565 0.062580 Li
0.719465 0.177565 0.562580 Li
0.719465 0.677566 0.062580 Li
0.719465 0.677565 0.562580 Li
0.322435 0.280535 0.312580 Li
0.322435 0.280535 0.812580 Li
0.322435 0.780535 0.312580 Li
0.322435 0.780535 0.812580 Li
0.822435 0.280535 0.312580 Li
0.822435 0.280535 0.812580 Li
0.822435 0.780535 0.312580 Li
0.822435 0.780535 0.812580 Li
0.280535 0.322435 0.437420 Li
0.280535 0.322435 0.937420 Li
0.280535 0.822435 0.437420 Li
0.280535 0.822435 0.937420 Li
0.780535 0.322435 0.437420 Li
0.780535 0.322435 0.937420 Li
0.780535 0.822435 0.437420 Li
0.780535 0.822435 0.937420 Li
0.029047 0.347581 0.432154 Li
0.029047 0.347581 0.932154 Li
0.029047 0.847581 0.432154 Li
0.029047 0.847581 0.932154 Li
0.529047 0.347581 0.432154 Li
0.529047 0.347581 0.932154 Li
0.529046 0.847581 0.432154 Li
0.529047 0.847581 0.932154 Li
0.347581 0.029047 0.317846 Li
0.347581 0.029047 0.817846 Li
0.347581 0.529046 0.317847 Li
0.347581 0.529046 0.817847 Li
0.847581 0.029047 0.317846 Li
0.847581 0.029047 0.817846 Li
0.847581 0.529046 0.317847 Li
0.847581 0.529046 0.817847 Li
0.470953 0.152419 0.067846 Li
0.470953 0.152419 0.567846 Li
0.470953 0.652419 0.067846 Li
0.470953 0.652419 0.567846 Li
0.970953 0.152419 0.067846 Li
0.970953 0.152419 0.567846 Li
0.970954 0.652419 0.067846 Li
0.970954 0.652419 0.567846 Li
0.152419 0.470953 0.182154 Li
0.152419 0.470953 0.682154 Li
0.152419 0.970954 0.182154 Li
0.152419 0.970954 0.682154 Li
0.652419 0.470953 0.182154 Li
0.652419 0.470953 0.682154 Li
0.652419 0.970954 0.182154 Li
0.652419 0.970954 0.682154 Li
0.389474 0.468897 0.187636 Ta
0.389474 0.468897 0.687636 Ta
0.389471 0.968908 0.187633 Ta
0.389471 0.968908 0.687633 Ta
0.889476 0.468896 0.187637 Ta
0.889477 0.468896 0.687637 Ta
0.889474 0.968907 0.187634 Ta
0.889473 0.968907 0.687634 Ta
0.468900 0.389471 0.062365 Ta
0.468900 0.389471 0.562366 Ta
0.468898 0.889477 0.062363 Ta
0.468898 0.889477 0.562363 Ta
0.968906 0.389471 0.062367 Ta
0.968906 0.389471 0.562367 Ta
0.968904 0.889476 0.062365 Ta
0.968904 0.889476 0.562364 Ta
0.110527 0.031101 0.312365 Ta
0.110527 0.031102 0.812365 Ta
0.110528 0.531091 0.312367 Ta
0.110528 0.531091 0.812367 Ta
0.610523 0.031103 0.312363 Ta
0.610523 0.031103 0.812363 Ta
0.610525 0.531092 0.312366 Ta
0.610525 0.531092 0.812366 Ta
0.031099 0.110528 0.437634 Ta
0.031099 0.110529 0.937634 Ta
0.031101 0.610522 0.437636 Ta
0.031101 0.610522 0.937636 Ta
0.531093 0.110529 0.437633 Ta
0.531093 0.110530 0.937633 Ta
0.531095 0.610523 0.437635 Ta
0.531095 0.610523 0.937635 Ta
0.355139 0.021080 0.068684 O
0.355139 0.021080 0.568684 O
0.355138 0.521082 0.068683 O
0.355138 0.521082 0.568683 O
0.855138 0.021081 0.068683 O
0.855138 0.021081 0.568683 O
0.855138 0.521083 0.068682 O
0.855137 0.521083 0.568682 O
0.021081 0.355139 0.181316 O
0.021081 0.355139 0.681316 O
0.021081 0.855138 0.181317 O
0.021081 0.855138 0.681317 O
0.521082 0.355139 0.181317 O
0.521082 0.355139 0.681317 O
0.521082 0.855137 0.181318 O
0.521083 0.855137 0.681318 O
0.144861 0.478920 0.431316 O
0.144861 0.478920 0.931316 O
0.144861 0.978918 0.431317 O
0.144861 0.978918 0.931317 O
0.644862 0.478920 0.431317 O
0.644862 0.478920 0.931317 O
0.644863 0.978918 0.431318 O
0.644863 0.978918 0.931318 O
0.478920 0.144861 0.318684 O
0.478920 0.144861 0.818684 O
0.478919 0.644863 0.318683 O
0.478919 0.644863 0.818683 O
0.978918 0.144861 0.318683 O
0.978919 0.144861 0.818683 O
0.978918 0.644863 0.318682 O
0.978918 0.644863 0.818682 O
0.211934 0.151254 0.309077 O
0.211934 0.151254 0.809077 O
0.211937 0.651259 0.309076 O
0.211937 0.651259 0.809076 O
0.711935 0.151255 0.309077 O
0.711935 0.151255 0.809077 O
0.711938 0.651259 0.309076 O
0.711938 0.651259 0.809076 O
0.151255 0.211934 0.440923 O
0.151255 0.211934 0.940923 O
0.151257 0.711936 0.440923 O
0.151257 0.711936 0.940923 O
0.651257 0.211936 0.440924 O
0.651257 0.211936 0.940924 O
0.651258 0.711937 0.440924 O
0.651259 0.711937 0.940924 O
0.288066 0.348746 0.190923 O
0.288066 0.348746 0.690923 O
0.288064 0.848742 0.190924 O
0.288064 0.848742 0.690924 O
0.788066 0.348745 0.190923 O
0.788066 0.348745 0.690923 O
0.788063 0.848741 0.190924 O
0.788063 0.848741 0.690924 O
0.348745 0.288066 0.059077 O
0.348745 0.288066 0.559077 O
0.348744 0.788065 0.059077 O
0.348744 0.788065 0.559077 O
0.848743 0.288065 0.059076 O
0.848743 0.288065 0.559076 O
0.848742 0.788064 0.059076 O
0.848742 0.788064 0.559076 O
0.089628 0.285034 0.065901 O
0.089628 0.285034 0.565901 O
0.089629 0.785033 0.065901 O
0.089629 0.785033 0.565901 O
0.589630 0.285032 0.065901 O
0.589631 0.285032 0.565901 O
0.589632 0.785031 0.065901 O
0.589633 0.785030 0.565901 O
0.285034 0.089627 0.184099 O
0.285034 0.089627 0.684099 O
0.285031 0.589632 0.184099 O
0.285031 0.589632 0.684099 O
0.785034 0.089628 0.184099 O
0.785034 0.089628 0.684099 O
0.785030 0.589633 0.184099 O
0.785030 0.589633 0.684099 O
0.410373 0.214966 0.434100 O
0.410373 0.214966 0.934100 O
0.410371 0.714968 0.434099 O
0.410371 0.714968 0.934099 O
0.910370 0.214968 0.434099 O
0.910370 0.214968 0.934099 O
0.910368 0.714970 0.434099 O
0.910368 0.714970 0.934099 O
0.214966 0.410373 0.315900 O
0.214966 0.410373 0.815900 O
0.214968 0.910369 0.315901 O
0.214968 0.910369 0.815901 O
0.714967 0.410372 0.315901 O
0.714967 0.410372 0.815901 O
0.714970 0.910367 0.315901 O
0.714970 0.910367 0.815901 O
0.474200 0.415967 0.306372 O
0.474200 0.415967 0.806372 O
0.474201 0.915964 0.306373 O
0.474201 0.915964 0.806373 O
0.974199 0.415967 0.306371 O
0.974199 0.415967 0.806371 O
0.974200 0.915964 0.306372 O
0.974200 0.915964 0.806372 O
0.415966 0.474200 0.443628 O
0.415966 0.474200 0.943628 O
0.415967 0.974198 0.443629 O
0.415967 0.974199 0.943629 O
0.915964 0.474201 0.443627 O
0.915964 0.474201 0.943627 O
0.915965 0.974199 0.443628 O
0.915965 0.974199 0.943628 O
0.025800 0.084033 0.193628 O
0.025800 0.084034 0.693628 O
0.025800 0.584036 0.193627 O
0.025800 0.584036 0.693627 O
0.525801 0.084033 0.193629 O
0.525801 0.084033 0.693629 O
0.525800 0.584036 0.193627 O
0.525800 0.584036 0.693627 O
0.084034 0.025800 0.056372 O
0.084034 0.025800 0.556372 O
0.084034 0.525802 0.056371 O
0.084034 0.525802 0.556371 O
0.584036 0.025799 0.056373 O
0.584036 0.025799 0.556373 O
0.584035 0.525801 0.056372 O
0.584035 0.525801 0.556372 O
