Li63 Ta65 O192                          
   1.00000000000000     
    15.0337320000000005   -0.0060940000000000   -0.0057460000000000
     0.9606630000000000   15.0030490000000007   -0.0057500000000000
     0.9606080000000000    0.9007180000000000   14.9759290000000007
   Li   Ta   O 
    63    65   192
Direct
  0.3864596470514954  0.3905257829067494  0.8894958576325251
  0.3905252341178098  0.8894957790975013  0.3864597269354277
  0.3896161064714505  0.8905037041374726  0.8897509975240183
  0.8894958833499516  0.3864595783241853  0.3905252573444997
  0.8897515021797986  0.3896157507766986  0.8905031795524465
  0.8905033452694013  0.8897513741490783  0.3896161038385557
  0.8901030674808510  0.8901027117597167  0.8901025355380128
  0.1373094580831591  0.3862260939134714  0.1375366681137322
  0.1381037616847109  0.3877140444817684  0.6427959162763841
  0.1397528132134838  0.8901567862441127  0.1393545644853376
  0.1389133118778787  0.8904936515230446  0.6405950898883148
  0.6429099848514923  0.3873137794310679  0.1382661528951914
  0.6407492038298912  0.3887846464523719  0.6419192459504401
  0.6405293537335837  0.8899751873382797  0.1394790638470766
  0.6404427740866154  0.8900014331844588  0.6403457987701486
  0.3862257604822830  0.1375367227283562  0.1373093012810571
  0.3873134052122396  0.1382669891075494  0.6429102212727145
  0.3877137208859693  0.6427954765813269  0.1381042653220064
  0.3887846181733892  0.6419191691087818  0.6407491202776257
  0.8901564979889542  0.1393544613270379  0.1397528118516149
  0.8899748407665697  0.1394791755275264  0.6405297574287445
  0.8904938402102758  0.6405953421602746  0.1389126376941334
  0.8900015136461761  0.6403458314550790  0.6404430375672305
  0.1375366657544816  0.1373100476706455  0.3862261629963868
  0.1393545541732450  0.1397529844198289  0.8901569784228940
  0.1382668001261678  0.6429104538920782  0.3873140532645820
  0.1394793771517584  0.6405296516530896  0.8899752394235350
  0.6427958757478365  0.1381044126028073  0.3877135962052449
  0.6405951290369956  0.1389123830201342  0.8904932529677794
  0.6419196225662134  0.6407492990403156  0.3887843733778524
  0.6403456220131858  0.6404430380067083  0.8900011425563505
  0.1396823214080669  0.1396827059071342  0.1396825391917105
  0.1379187914122824  0.1379246826366511  0.6436371801976932
  0.1379246087532948  0.6436377500589998  0.1379185610524516
  0.1382284056885226  0.6422513448939782  0.6443039903945689
  0.6436375265309451  0.1379185859069452  0.1379241831132418
  0.6443041451008540  0.1382279925932721  0.6422513995481935
  0.6422510565292754  0.6443043979973595  0.1382278934780459
  0.6403486586595548  0.6403464368489438  0.6403479276268271
  0.3866155231370954  0.1360189397774718  0.3875832523394536
  0.3885987434220084  0.1371356858044095  0.8901406293388732
  0.3879008017826351  0.6427327755363308  0.3881369267086043
  0.3892791771390023  0.6402095680397935  0.8903588129514546
  0.8901763577702724  0.1402690660392949  0.3891033484710391
  0.8904829801166727  0.1393992598677229  0.8898092744570292
  0.8895553224318320  0.6426223172982191  0.3890578236336921
  0.8899794063708342  0.6398522781477780  0.8898568179364474
  0.1360197008625050  0.3875827406028165  0.3866161052641317
  0.1402686798576838  0.3891037480292994  0.8901770853137947
  0.1371353634157799  0.8901410097091116  0.3885988354542960
  0.1393991473559879  0.8898095292798871  0.8904827422179835
  0.6427328223130502  0.3881369821958245  0.3879001810093428
  0.6426216160217137  0.3890588683310199  0.8895548593652691
  0.6402097185344289  0.8903587919078859  0.3892790278045268
  0.6398520592396721  0.8898571834837270  0.8899793687562862
  0.3875821684474516  0.3866153882509096  0.1360195031526885
  0.3881368123371729  0.3879006808347611  0.6427325416363487
  0.3891040106048607  0.8901771449286571  0.1402684697632495
  0.3890572341449996  0.8895555084203934  0.6426219528292947
  0.8901408868475968  0.3885987922430161  0.1371353087655578
  0.8903589067049609  0.3892792551582716  0.6402095100943868
  0.8898095041955543  0.8904830179890126  0.1393992046059651
  0.8898563494548810  0.8899794166342616  0.6398522444739356
  0.3963267184717694  0.3963265082503113  0.3963262976373727
  0.2482012312670392  0.2482017496895210  0.2482013350963328
  0.2485011351844832  0.2476066771421799  0.7491686726839930
  0.2476064625952716  0.7491691648466130  0.2485011904076089
  0.2479406985719024  0.7483147093586453  0.7488058455824813
  0.7491680732744683  0.2485012413059593  0.2476059990527872
  0.7488055240267499  0.2479413831665767  0.7483139104088750
  0.7483140455550483  0.7488060675909622  0.2479407187977216
  0.7480564892829520  0.7480566298466513  0.7480557742543539
  0.5028361256473630  0.2370494652823751  0.5013333939636553
  0.4980702478026870  0.2486187040916619  0.9950850359764871
  0.4979126908314768  0.7479091938065423  0.4977949797380887
  0.4980353132791393  0.7488409227899879  0.9980462330315731
  0.9988957026447167  0.2480215127029695  0.4984218499831314
  0.9987197762641742  0.2480179804404443  0.9981070197921014
  0.9979590904332269  0.7485944293977767  0.4985631004819737
  0.9978739453234837  0.7486242919756947  0.9979720246630421
  0.2370483905680985  0.5013326143632355  0.5028370330390999
  0.2480211582672140  0.4984218557333406  0.9988960028292695
  0.2486172977510108  0.9950860657878380  0.4980704723007463
  0.2480180765904123  0.9981072203753172  0.9987197706639179
  0.7479086431499269  0.4977951104530689  0.4979129726265157
  0.7485939540276689  0.4985633136635528  0.9979592400506831
  0.7488397936549092  0.9980466185284129  0.4980354731792005
  0.7486233065647880  0.9979725801761816  0.9978741488836320
  0.5013327128566516  0.5028367292023574  0.2370496956542638
  0.4977944696897083  0.4979131170843516  0.7479086184684931
  0.4984215856067493  0.9988964291618743  0.2480208491530149
  0.4985625267033811  0.9979593777459357  0.7485939407045805
  0.9950852107724586  0.4980706224906797  0.2486178331721263
  0.9980467956411232  0.4980357044700909  0.7488400172882308
  0.9981067864266890  0.9987201897142270  0.2480177497748599
  0.9979724276565847  0.9978741343417425  0.7486239689951475
  0.5002039813290793  0.5002034687560410  0.5002034966396707
  0.4991883263613488  0.4973407441999171  0.9944205289292753
  0.4973399211737686  0.9944207137260150  0.4991885864202956
  0.4983434033634708  0.9981523538391244  0.9985904814521049
  0.9944198629683854  0.4991892928111383  0.4973399585263678
  0.9985914069247386  0.4983435594338559  0.9981507699264043
  0.9981510992292684  0.9985914022246405  0.4983429607046048
  0.9982974517796421  0.9982975547337105  0.9982971198525235
  0.2403101822912035  0.5007406006382666  0.2457150068965603
  0.2474532786433699  0.4986478386336302  0.7489783512690522
  0.2479964112923199  0.9986267080076203  0.2482116885271139
  0.2475997236870668  0.9979905097080248  0.7490128970223680
  0.7497291748695716  0.4981779604480181  0.2477743493091111
  0.7481585047691937  0.4982118263093511  0.7482133643344611
  0.7486663477146607  0.9979209094116399  0.2481953955374436
  0.7482625526925304  0.9975896428167346  0.7486079385029072
  0.5007401019452757  0.2457145726714671  0.2403098985128338
  0.4981773065505521  0.2477756701913947  0.7497292333235634
  0.4986471924949072  0.7489790974913504  0.2474531875296506
  0.4982123064708688  0.7482140075382091  0.7481588532050907
  0.9986261206159952  0.2482122991949751  0.2479968682881406
  0.9979204047086725  0.2481961632123983  0.7486665162818440
  0.9979903252857412  0.7490133488524862  0.2475995591175604
  0.9975902240146226  0.7486079692528236  0.7482625611628961
  0.2457144395068482  0.2403116178894962  0.5007399347451909
  0.2482120409644395  0.2479969932655806  0.9986256641961333
  0.2477751840042615  0.7497300948615901  0.4981771259156389
  0.2481958470763388  0.7486668700566526  0.9979202640051099
  0.7489784663709855  0.2474536674964440  0.4986469206029653
  0.7490132688828055  0.2476002841893745  0.9979892715354310
  0.7482133769452517  0.7481585088949672  0.4982114078772497
  0.7486077466774859  0.7482633083302872  0.9975892013815155
  0.2082466320821155  0.3687383214010111  0.2708792671939264
  0.2091132268130025  0.3684804343663117  0.7703400477320912
  0.2082067840898105  0.8687850384231552  0.2717759062225227
  0.2084989694955866  0.8686627398387756  0.7712950216946624
  0.7073458906573364  0.3693346763174716  0.2686767631681235
  0.7083960481446070  0.3685707779454788  0.7698095872110500
  0.7079447669003045  0.8688807519395425  0.2703919754615853
  0.7080621030341021  0.8684396913310692  0.7704696584506436
  0.4584947822358885  0.3681094907547262  0.0211612807671884
  0.4550600762445285  0.3643620022595044  0.5177250948227865
  0.4584106604785347  0.8687803196895274  0.0213958075737963
  0.4574663762864120  0.8685138801363195  0.5215339730295980
  0.9588481802539803  0.3685668865822578  0.0202251569566343
  0.9579481484340491  0.3686086017014318  0.5196751782793498
  0.9582035520350516  0.8687701635815088  0.0207156064383014
  0.9583788967277940  0.8688203316916585  0.5204280933698655
  0.2086767997436993  0.1186593549397656  0.0210586637279349
  0.2080888298677763  0.1180762139521292  0.5225411451432436
  0.2086288425153597  0.6184113138071297  0.0215068101279172
  0.2053788322559100  0.6199210155167805  0.5242693519383792
  0.7083046727607254  0.1186380068208237  0.0197389696965899
  0.7077330108765238  0.1188533648857657  0.5199187001923562
  0.7083885941014429  0.6185716958722338  0.0204052996967974
  0.7075970668741576  0.6179365333674269  0.5197533838552957
  0.4585575726078801  0.1199724920705378  0.2722756736049092
  0.4584162659254503  0.1188273196690801  0.7710022547500515
  0.4580124923662581  0.6174912078595298  0.2714227280020012
  0.4585368104480523  0.6177540006678086  0.7707392633609089
  0.9579821405151847  0.1191372796143710  0.2703045194339495
  0.9586384706772861  0.1186902260422613  0.7703658678755758
  0.9579367263054053  0.6183889648485348  0.2707341108860462
  0.9584471692232626  0.6184700494398427  0.7704246373336829
  0.2708792916398366  0.2082471800353147  0.3687382354977515
  0.2717758030298825  0.2082068062455917  0.8687847632082608
  0.2686771539936430  0.7073458887008073  0.3693350203296646
  0.2703922514541901  0.7079448222168097  0.8688807953414184
  0.7703397531218314  0.2091132109146798  0.3684800298738864
  0.7712949166060312  0.2084986114996354  0.8686622978804550
  0.7698095173377695  0.7083961485752965  0.3685702860987945
  0.7704701571612418  0.7080620751488667  0.8684399381431405
  0.0210566429347949  0.2086766494780079  0.1186600181113349
  0.0215064268677310  0.2086286828526056  0.6184112542274960
  0.0197391160364120  0.7083048436033010  0.1186374249805340
  0.0204055478490730  0.7083886214806938  0.6185719045866662
  0.5225418038098510  0.2080891072388198  0.1180756943057233
  0.5242697098129909  0.2053777568666462  0.6199214238622162
  0.5199183151881854  0.7077331217534208  0.1188532190569376
  0.5197544888879975  0.7075971880443390  0.6179369038526161
  0.2722756033247506  0.4585579670102433  0.1199726735485243
  0.2714226476992039  0.4580124101449954  0.6174919937196535
  0.2703041005791320  0.9579823248836732  0.1191373750927198
  0.2707341404791777  0.9579366624741255  0.6183889236191860
  0.7710022056946073  0.4584163502037981  0.1188273454134929
  0.7707391907809082  0.4585363129860553  0.6177539767493698
  0.7703658810909815  0.9586384176823302  0.1186905456636040
  0.7704248413011072  0.9584472102377504  0.6184701370518155
  0.0211613786617093  0.4584950060526793  0.3681091706767035
  0.0213959710794356  0.4584100576873169  0.8687797826332755
  0.0202251536072708  0.9588477331728313  0.3685668604301497
  0.0207154553696540  0.9582037162246451  0.8687705092611679
  0.5177248640581098  0.4550619109881495  0.3643619822853310
  0.5215336996755298  0.4574661395310358  0.8685136572993315
  0.5196752823180049  0.9579484680689205  0.3686087907786657
  0.5204277999902800  0.9583793373100491  0.8688205303784002
  0.3687378943905273  0.2708793283959920  0.2082469693264954
  0.3693343608439861  0.2686771289117686  0.7073455672739968
  0.3684799575086899  0.7703400554447413  0.2091130578249789
  0.3685706085311082  0.7698097811071918  0.7083957632710565
  0.8687842267221839  0.2717759202157453  0.2082073438590371
  0.8688805705598952  0.2703921101845168  0.7079447459414965
  0.8686626109227049  0.7712948466137419  0.2084986112339209
  0.8684399753044332  0.7704703344364745  0.7080623922200360
  0.1199717776032898  0.2722755155573537  0.4585574101725740
  0.1191367901647595  0.2703039429476775  0.9579825679619205
  0.1188271784725217  0.7710020898235399  0.4584163260647571
  0.1186897709575447  0.7703656925653632  0.9586384216890735
  0.6174913903633694  0.2714232224716540  0.4580128914700055
  0.6183891004663735  0.2707339308254433  0.9579366355280712
  0.6177536890293709  0.7707388947637028  0.4585348900210704
  0.6184705269960133  0.7704248326231706  0.9584469223933922
  0.3681086290528768  0.0211610458036589  0.4584949740705468
  0.3685671930001888  0.0202257538742217  0.9588475348475569
  0.3643617666143584  0.5177227157179232  0.4550640135616817
  0.3686082652362614  0.5196751649209901  0.9579480529549471
  0.8687795907650084  0.0213959300785191  0.4584098037869424
  0.8687689502990494  0.0207166322949917  0.9582029852866398
  0.8685139894216007  0.5215340743358468  0.4574654360292314
  0.8688203503829612  0.5204279390345334  0.9583789369188906
  0.1186592112706606  0.0210586228842544  0.2086763605877451
  0.1186373362407167  0.0197399539894647  0.7083048257372582
  0.1180752159084832  0.5225415599403789  0.2080883512639531
  0.1188530213792731  0.5199181092574463  0.7077325764684943
  0.6184123570261164  0.0215092713577150  0.2086282418516348
  0.6185717506923467  0.0204053400998347  0.7083880049185254
  0.6199211469605714  0.5242699215995898  0.2053776083452235
  0.6179364653699295  0.5197536458988523  0.7075966689600222
  0.2082946104300518  0.2707209203990786  0.1188672849411390
  0.2092558107561544  0.2725468303091745  0.6178614465358550
  0.2087598911124928  0.7700170992515680  0.1190790321766073
  0.2089914009100298  0.7720389298331511  0.6183062640447901
  0.7077842416213755  0.2693581019417692  0.1186951156706186
  0.7081514361492580  0.2701198334501953  0.6186138228713816
  0.7083349676988178  0.7698214727117900  0.1185452041281962
  0.7079315166803610  0.7702103127366087  0.6183926144108938
  0.4543634632276508  0.2782954094650734  0.3673130098861037
  0.4573479460223027  0.2725390857945342  0.8689486184379831
  0.4580537157383660  0.7699135073398580  0.3685239238454017
  0.4585996070441567  0.7705234222319390  0.8685600301054848
  0.9589539024477887  0.2702953879871117  0.3686304941902137
  0.9582719942680242  0.2706875498072350  0.8687452017048258
  0.9587470520634014  0.7700067764888274  0.3685909551740494
  0.9582210968397931  0.7707167468142657  0.8686795112222896
  0.2084795882537023  0.0213039447252541  0.3688963018657461
  0.2083894085936109  0.0212071246064696  0.8688626245806930
  0.2080043547585717  0.5197356801996733  0.3691744588869810
  0.2087205809263821  0.5208604637490879  0.8690436273133315
  0.7083790143267876  0.0200083132409361  0.3686865826721473
  0.7081132563887067  0.0202981090312662  0.8686902002165340
  0.7066964777669895  0.5193795502003837  0.3679313847913903
  0.7079109071246705  0.5201456177458041  0.8686567450145404
  0.4583768065784142  0.0216713948810892  0.1190264224283837
  0.4583926361778481  0.0217616024043323  0.6180455885463516
  0.4553117619726024  0.5204796566933823  0.1180750961638282
  0.4568432509897278  0.5212283191401497  0.6178132851795510
  0.9582050614259501  0.0207034888160749  0.1186892217823114
  0.9585041510795733  0.0209052290090810  0.6184624989397989
  0.9579211708183877  0.5201000939615881  0.1189382426178227
  0.9586477869084149  0.5205088291216953  0.6180021582541499
  0.1188668343972878  0.2082949167814476  0.2707209773539745
  0.1190788152798419  0.2087601306302176  0.7700172839279062
  0.1186948833729460  0.7077841244344185  0.2693584256498482
  0.1185456647746221  0.7083341191782964  0.7698219402241762
  0.6178614554299813  0.2092563376777008  0.2725468077076414
  0.6183063126195378  0.2089917686083496  0.7720394865167037
  0.6186143979673204  0.7081514429441427  0.2701197149447978
  0.6183943764947273  0.7079327464591643  0.7702105953630465
  0.3688962565084495  0.2084799700906714  0.0213041191488657
  0.3691736764302860  0.2080044893232724  0.5197348280971070
  0.3686863996019696  0.7083792987597661  0.0200086294727626
  0.3679319165203481  0.7066960200512113  0.5193796510430531
  0.8688626912855995  0.2083893359845916  0.0212070515913894
  0.8690432515901279  0.2087203786735472  0.5208602750362417
  0.8686903278716684  0.7081134096465647  0.0202985068479080
  0.8686559075389297  0.7079104722132854  0.5201471276883467
  0.1190262668978335  0.4583768103557588  0.0216713074375932
  0.1180746013621601  0.4553115551663467  0.5204799061589256
  0.1186888937205666  0.9582055487618319  0.0207036851077689
  0.1189380061159540  0.9579214476942965  0.5201000456816587
  0.6180459036587393  0.4583931335610529  0.0217616167293002
  0.6178144551367524  0.4568426125485132  0.5212288697705176
  0.6184621672479338  0.9585042720308294  0.0209061787899998
  0.6180021115107550  0.9586481610032607  0.5205088343476163
  0.3673114965720430  0.4543617510607376  0.2782955530982392
  0.3685239536628515  0.4580541511121794  0.7699141274409271
  0.3686300047777067  0.9589548771590160  0.2702957505492662
  0.3685900167149327  0.9587484818354000  0.7700072051804909
  0.8689484889163950  0.4573481503906649  0.2725390234263472
  0.8685599721080735  0.4585996058963744  0.7705232711772254
  0.8687450699882859  0.9582720098909476  0.2706876625082231
  0.8686796248703175  0.9582211322594034  0.7707169588523684
  0.2707207767030226  0.1188672056249516  0.2082949168632879
  0.2693581189663874  0.1186952233851173  0.7077839975696989
  0.2725461423001860  0.6178614940535212  0.2092578445878530
  0.2701200628531808  0.6186139724925610  0.7081515026451228
  0.7700172117186312  0.1190790313255832  0.2087600084681540
  0.7698216853525608  0.1185447127625139  0.7083350575975587
  0.7720392567520804  0.6183062804323214  0.2089914969115938
  0.7702103133255704  0.6183938068492552  0.7079325349005430
  0.0216710910917399  0.1190263063195971  0.4583769919731253
  0.0207026109168282  0.1186880257696288  0.9582062953934667
  0.0217616156949418  0.6180454866648191  0.4583931869419970
  0.0209061011168075  0.6184621223288289  0.9585044021399582
  0.5204788079971863  0.1180753398864312  0.4553120365277792
  0.5201003727486935  0.1189388340531750  0.9579228329325318
  0.5212296386604436  0.6178128511969589  0.4568448872172155
  0.5205089056689971  0.6180022781246421  0.9586480088060227
  0.2782941302866035  0.3673123538345422  0.4543610670304687
  0.2702953259829073  0.3686299482193718  0.9589546166421741
  0.2725389075131375  0.8689487420475359  0.4573485441441036
  0.2706878248912119  0.8687449409778196  0.9582721105161767
  0.7699143561066464  0.3685233976481470  0.4580538420725517
  0.7700070650818205  0.3685907132293664  0.9587469412721390
  0.7705229785254133  0.8685595705828106  0.4586001903380605
  0.7707174368904788  0.8686789825341776  0.9582213853093862
  0.0213040630413772  0.3688960193601787  0.2084802781756707
  0.0200083030872804  0.3686860801698302  0.7083794191373229
  0.0212072296311021  0.8688623663904025  0.2083896941470798
  0.0203007498906231  0.8686897867588428  0.7081155969697264
  0.5197346646086913  0.3691739822886149  0.2080044766961393
  0.5193797135073766  0.3679317188383990  0.7066965534027574
  0.5208606902199975  0.8690436281510543  0.2087206052513508
  0.5201451241503108  0.8686566753645337  0.7079119968378293
 
  0.00000000E+00  0.00000000E+00  0.00000000E+00
  0.00000000E+00  0.00000000E+00  0.00000000E+00
  0.00000000E+00  0.00000000E+00  0.00000000E+00
  0.00000000E+00  0.00000000E+00  0.00000000E+00
  0.00000000E+00  0.00000000E+00  0.00000000E+00
  0.00000000E+00  0.00000000E+00  0.00000000E+00
  0.00000000E+00  0.00000000E+00  0.00000000E+00
  0.00000000E+00  0.00000000E+00  0.00000000E+00
  0.00000000E+00  0.00000000E+00  0.00000000E+00
  0.00000000E+00  0.00000000E+00  0.00000000E+00
  0.00000000E+00  0.00000000E+00  0.00000000E+00
  0.00000000E+00  0.00000000E+00  0.00000000E+00
  0.00000000E+00  0.00000000E+00  0.00000000E+00
  0.00000000E+00  0.00000000E+00  0.00000000E+00
  0.00000000E+00  0.00000000E+00  0.00000000E+00
  0.00000000E+00  0.00000000E+00  0.00000000E+00
  0.00000000E+00  0.00000000E+00  0.00000000E+00
  0.00000000E+00  0.00000000E+00  0.00000000E+00
  0.00000000E+00  0.00000000E+00  0.00000000E+00
  0.00000000E+00  0.00000000E+00  0.00000000E+00
  0.00000000E+00  0.00000000E+00  0.00000000E+00
  0.00000000E+00  0.00000000E+00  0.00000000E+00
  0.00000000E+00  0.00000000E+00  0.00000000E+00
  0.00000000E+00  0.00000000E+00  0.00000000E+00
  0.00000000E+00  0.00000000E+00  0.00000000E+00
  0.00000000E+00  0.00000000E+00  0.00000000E+00
  0.00000000E+00  0.00000000E+00  0.00000000E+00
  0.00000000E+00  0.00000000E+00  0.00000000E+00
  0.00000000E+00  0.00000000E+00  0.00000000E+00
  0.00000000E+00  0.00000000E+00  0.00000000E+00
  0.00000000E+00  0.00000000E+00  0.00000000E+00
  0.00000000E+00  0.00000000E+00  0.00000000E+00
  0.00000000E+00  0.00000000E+00  0.00000000E+00
  0.00000000E+00  0.00000000E+00  0.00000000E+00
  0.00000000E+00  0.00000000E+00  0.00000000E+00
  0.00000000E+00  0.00000000E+00  0.00000000E+00
  0.00000000E+00  0.00000000E+00  0.00000000E+00
  0.00000000E+00  0.00000000E+00  0.00000000E+00
  0.00000000E+00  0.00000000E+00  0.00000000E+00
  0.00000000E+00  0.00000000E+00  0.00000000E+00
  0.00000000E+00  0.00000000E+00  0.00000000E+00
  0.00000000E+00  0.00000000E+00  0.00000000E+00
  0.00000000E+00  0.00000000E+00  0.00000000E+00
  0.00000000E+00  0.00000000E+00  0.00000000E+00
  0.00000000E+00  0.00000000E+00  0.00000000E+00
  0.00000000E+00  0.00000000E+00  0.00000000E+00
  0.00000000E+00  0.00000000E+00  0.00000000E+00
  0.00000000E+00  0.00000000E+00  0.00000000E+00
  0.00000000E+00  0.00000000E+00  0.00000000E+00
  0.00000000E+00  0.00000000E+00  0.00000000E+00
  0.00000000E+00  0.00000000E+00  0.00000000E+00
  0.00000000E+00  0.00000000E+00  0.00000000E+00
  0.00000000E+00  0.00000000E+00  0.00000000E+00
  0.00000000E+00  0.00000000E+00  0.00000000E+00
  0.00000000E+00  0.00000000E+00  0.00000000E+00
  0.00000000E+00  0.00000000E+00  0.00000000E+00
  0.00000000E+00  0.00000000E+00  0.00000000E+00
  0.00000000E+00  0.00000000E+00  0.00000000E+00
  0.00000000E+00  0.00000000E+00  0.00000000E+00
  0.00000000E+00  0.00000000E+00  0.00000000E+00
  0.00000000E+00  0.00000000E+00  0.00000000E+00
  0.00000000E+00  0.00000000E+00  0.00000000E+00
  0.00000000E+00  0.00000000E+00  0.00000000E+00
  0.00000000E+00  0.00000000E+00  0.00000000E+00
  0.00000000E+00  0.00000000E+00  0.00000000E+00
  0.00000000E+00  0.00000000E+00  0.00000000E+00
  0.00000000E+00  0.00000000E+00  0.00000000E+00
  0.00000000E+00  0.00000000E+00  0.00000000E+00
  0.00000000E+00  0.00000000E+00  0.00000000E+00
  0.00000000E+00  0.00000000E+00  0.00000000E+00
  0.00000000E+00  0.00000000E+00  0.00000000E+00
  0.00000000E+00  0.00000000E+00  0.00000000E+00
  0.00000000E+00  0.00000000E+00  0.00000000E+00
  0.00000000E+00  0.00000000E+00  0.00000000E+00
  0.00000000E+00  0.00000000E+00  0.00000000E+00
  0.00000000E+00  0.00000000E+00  0.00000000E+00
  0.00000000E+00  0.00000000E+00  0.00000000E+00
  0.00000000E+00  0.00000000E+00  0.00000000E+00
  0.00000000E+00  0.00000000E+00  0.00000000E+00
  0.00000000E+00  0.00000000E+00  0.00000000E+00
  0.00000000E+00  0.00000000E+00  0.00000000E+00
  0.00000000E+00  0.00000000E+00  0.00000000E+00
  0.00000000E+00  0.00000000E+00  0.00000000E+00
  0.00000000E+00  0.00000000E+00  0.00000000E+00
  0.00000000E+00  0.00000000E+00  0.00000000E+00
  0.00000000E+00  0.00000000E+00  0.00000000E+00
  0.00000000E+00  0.00000000E+00  0.00000000E+00
  0.00000000E+00  0.00000000E+00  0.00000000E+00
  0.00000000E+00  0.00000000E+00  0.00000000E+00
  0.00000000E+00  0.00000000E+00  0.00000000E+00
  0.00000000E+00  0.00000000E+00  0.00000000E+00
  0.00000000E+00  0.00000000E+00  0.00000000E+00
  0.00000000E+00  0.00000000E+00  0.00000000E+00
  0.00000000E+00  0.00000000E+00  0.00000000E+00
  0.00000000E+00  0.00000000E+00  0.00000000E+00
  0.00000000E+00  0.00000000E+00  0.00000000E+00
  0.00000000E+00  0.00000000E+00  0.00000000E+00
  0.00000000E+00  0.00000000E+00  0.00000000E+00
  0.00000000E+00  0.00000000E+00  0.00000000E+00
  0.00000000E+00  0.00000000E+00  0.00000000E+00
  0.00000000E+00  0.00000000E+00  0.00000000E+00
  0.00000000E+00  0.00000000E+00  0.00000000E+00
  0.00000000E+00  0.00000000E+00  0.00000000E+00
  0.00000000E+00  0.00000000E+00  0.00000000E+00
  0.00000000E+00  0.00000000E+00  0.00000000E+00
  0.00000000E+00  0.00000000E+00  0.00000000E+00
  0.00000000E+00  0.00000000E+00  0.00000000E+00
  0.00000000E+00  0.00000000E+00  0.00000000E+00
  0.00000000E+00  0.00000000E+00  0.00000000E+00
  0.00000000E+00  0.00000000E+00  0.00000000E+00
  0.00000000E+00  0.00000000E+00  0.00000000E+00
  0.00000000E+00  0.00000000E+00  0.00000000E+00
  0.00000000E+00  0.00000000E+00  0.00000000E+00
  0.00000000E+00  0.00000000E+00  0.00000000E+00
  0.00000000E+00  0.00000000E+00  0.00000000E+00
  0.00000000E+00  0.00000000E+00  0.00000000E+00
  0.00000000E+00  0.00000000E+00  0.00000000E+00
  0.00000000E+00  0.00000000E+00  0.00000000E+00
  0.00000000E+00  0.00000000E+00  0.00000000E+00
  0.00000000E+00  0.00000000E+00  0.00000000E+00
  0.00000000E+00  0.00000000E+00  0.00000000E+00
  0.00000000E+00  0.00000000E+00  0.00000000E+00
  0.00000000E+00  0.00000000E+00  0.00000000E+00
  0.00000000E+00  0.00000000E+00  0.00000000E+00
  0.00000000E+00  0.00000000E+00  0.00000000E+00
  0.00000000E+00  0.00000000E+00  0.00000000E+00
  0.00000000E+00  0.00000000E+00  0.00000000E+00
  0.00000000E+00  0.00000000E+00  0.00000000E+00
  0.00000000E+00  0.00000000E+00  0.00000000E+00
  0.00000000E+00  0.00000000E+00  0.00000000E+00
  0.00000000E+00  0.00000000E+00  0.00000000E+00
  0.00000000E+00  0.00000000E+00  0.00000000E+00
  0.00000000E+00  0.00000000E+00  0.00000000E+00
  0.00000000E+00  0.00000000E+00  0.00000000E+00
  0.00000000E+00  0.00000000E+00  0.00000000E+00
  0.00000000E+00  0.00000000E+00  0.00000000E+00
  0.00000000E+00  0.00000000E+00  0.00000000E+00
  0.00000000E+00  0.00000000E+00  0.00000000E+00
  0.00000000E+00  0.00000000E+00  0.00000000E+00
  0.00000000E+00  0.00000000E+00  0.00000000E+00
  0.00000000E+00  0.00000000E+00  0.00000000E+00
  0.00000000E+00  0.00000000E+00  0.00000000E+00
  0.00000000E+00  0.00000000E+00  0.00000000E+00
  0.00000000E+00  0.00000000E+00  0.00000000E+00
  0.00000000E+00  0.00000000E+00  0.00000000E+00
  0.00000000E+00  0.00000000E+00  0.00000000E+00
  0.00000000E+00  0.00000000E+00  0.00000000E+00
  0.00000000E+00  0.00000000E+00  0.00000000E+00
  0.00000000E+00  0.00000000E+00  0.00000000E+00
  0.00000000E+00  0.00000000E+00  0.00000000E+00
  0.00000000E+00  0.00000000E+00  0.00000000E+00
  0.00000000E+00  0.00000000E+00  0.00000000E+00
  0.00000000E+00  0.00000000E+00  0.00000000E+00
  0.00000000E+00  0.00000000E+00  0.00000000E+00
  0.00000000E+00  0.00000000E+00  0.00000000E+00
  0.00000000E+00  0.00000000E+00  0.00000000E+00
  0.00000000E+00  0.00000000E+00  0.00000000E+00
  0.00000000E+00  0.00000000E+00  0.00000000E+00
  0.00000000E+00  0.00000000E+00  0.00000000E+00
  0.00000000E+00  0.00000000E+00  0.00000000E+00
  0.00000000E+00  0.00000000E+00  0.00000000E+00
  0.00000000E+00  0.00000000E+00  0.00000000E+00
  0.00000000E+00  0.00000000E+00  0.00000000E+00
  0.00000000E+00  0.00000000E+00  0.00000000E+00
  0.00000000E+00  0.00000000E+00  0.00000000E+00
  0.00000000E+00  0.00000000E+00  0.00000000E+00
  0.00000000E+00  0.00000000E+00  0.00000000E+00
  0.00000000E+00  0.00000000E+00  0.00000000E+00
  0.00000000E+00  0.00000000E+00  0.00000000E+00
  0.00000000E+00  0.00000000E+00  0.00000000E+00
  0.00000000E+00  0.00000000E+00  0.00000000E+00
  0.00000000E+00  0.00000000E+00  0.00000000E+00
  0.00000000E+00  0.00000000E+00  0.00000000E+00
  0.00000000E+00  0.00000000E+00  0.00000000E+00
  0.00000000E+00  0.00000000E+00  0.00000000E+00
  0.00000000E+00  0.00000000E+00  0.00000000E+00
  0.00000000E+00  0.00000000E+00  0.00000000E+00
  0.00000000E+00  0.00000000E+00  0.00000000E+00
  0.00000000E+00  0.00000000E+00  0.00000000E+00
  0.00000000E+00  0.00000000E+00  0.00000000E+00
  0.00000000E+00  0.00000000E+00  0.00000000E+00
  0.00000000E+00  0.00000000E+00  0.00000000E+00
  0.00000000E+00  0.00000000E+00  0.00000000E+00
  0.00000000E+00  0.00000000E+00  0.00000000E+00
  0.00000000E+00  0.00000000E+00  0.00000000E+00
  0.00000000E+00  0.00000000E+00  0.00000000E+00
  0.00000000E+00  0.00000000E+00  0.00000000E+00
  0.00000000E+00  0.00000000E+00  0.00000000E+00
  0.00000000E+00  0.00000000E+00  0.00000000E+00
  0.00000000E+00  0.00000000E+00  0.00000000E+00
  0.00000000E+00  0.00000000E+00  0.00000000E+00
  0.00000000E+00  0.00000000E+00  0.00000000E+00
  0.00000000E+00  0.00000000E+00  0.00000000E+00
  0.00000000E+00  0.00000000E+00  0.00000000E+00
  0.00000000E+00  0.00000000E+00  0.00000000E+00
  0.00000000E+00  0.00000000E+00  0.00000000E+00
  0.00000000E+00  0.00000000E+00  0.00000000E+00
  0.00000000E+00  0.00000000E+00  0.00000000E+00
  0.00000000E+00  0.00000000E+00  0.00000000E+00
  0.00000000E+00  0.00000000E+00  0.00000000E+00
  0.00000000E+00  0.00000000E+00  0.00000000E+00
  0.00000000E+00  0.00000000E+00  0.00000000E+00
  0.00000000E+00  0.00000000E+00  0.00000000E+00
  0.00000000E+00  0.00000000E+00  0.00000000E+00
  0.00000000E+00  0.00000000E+00  0.00000000E+00
  0.00000000E+00  0.00000000E+00  0.00000000E+00
  0.00000000E+00  0.00000000E+00  0.00000000E+00