Li95 Nb32 O128                          
   1.00000000000000     
    13.7806110000000004   -0.0000030000000000   -4.8721819999999996
    -6.8903090000000002   11.9343559999999993   -4.8721850000000000
     0.0000000000000000   -0.0000040000000000   14.6165459999999996
   Li   Nb   O 
    95    32   128
Direct
  0.0001062773562168  0.1367183488362755  0.2571253695658058
  0.9997735188375216  0.1364054534582024  0.7571951876328242
  0.0002265240751953  0.6366321462344686  0.2574219341688959
  0.9998935873030916  0.6366115931168750  0.7570183564466078
  0.5000000659777442  0.1347045959465660  0.7563369028348319
  0.5000002598287665  0.6363559259853488  0.2579859257393835
  0.4999999746332833  0.6366286502765064  0.7563394136256676
  0.3630844116669039  0.3624994194627789  0.1211137147468335
  0.3621770378807767  0.3634848749766562  0.6211656334781424
  0.3641168210309189  0.8646828791106671  0.1216369174975398
  0.3642684977181574  0.8641925741250205  0.6208934737215444
  0.8620855705926260  0.3613807167387577  0.1202620378197850
  0.8619761934797907  0.3628175537836782  0.6199465995786824
  0.8633874407841517  0.8635706468017190  0.1206587212172536
  0.8631459893494906  0.8633091429546553  0.6207455044739518
  0.1380226683686061  0.0008406126775853  0.2579692914029295
  0.1379144406704569  0.9992951234214402  0.7581765028204472
  0.1368539262512485  0.5001630504651118  0.2575998442278973
  0.1366131699542805  0.5001833301920371  0.7572719977993145
  0.6358832035412050  0.0005669311843945  0.2575198526543190
  0.6357313511449831  0.9999239405867115  0.7566246823379856
  0.6369153524456408  0.4994156545557757  0.2580289017085278
  0.6378226860838367  0.5013075209668116  0.7589883178119621
  0.0000457124384567  0.2569489383217274  0.1366347963372050
  0.9999612113991745  0.2573391925806661  0.6364786404623999
  0.0000390082242419  0.7573782361794912  0.1365174280668313
  0.9999541209483169  0.7569032375922475  0.6365886940825689
  0.5000001450250053  0.2564216787588975  0.1375780390925243
  0.4999999474444010  0.2572316576200180  0.6373487214987890
  0.5000000155701656  0.7586871734416647  0.1366751519381495
  0.5000001045093398  0.7580246728237583  0.6359243003053692
  0.1362987477330577  0.2571968835552312  0.9998066754237271
  0.1362677617325261  0.2574893364175352  0.5000276485785520
  0.1377831008607444  0.7584250314568237  0.0003543192027351
  0.1370246800334982  0.7575950972551340  0.5003777342603541
  0.6360688313823033  0.2555860273925319  0.9997321818144513
  0.6327359348278137  0.2548197099746616  0.4952918364915888
  0.6364019985356961  0.7575633512160280  0.9996379779999174
  0.6355580986869498  0.7568181764118265  0.4997650018119089
  0.3672638805943365  0.1220838123039343  0.3625563856167417
  0.3639310900565036  0.1195173089142543  0.8636637845335429
  0.3644418439533013  0.6212600752270632  0.3642068467707418
  0.3635983736593431  0.6211613805125467  0.8632366109707377
  0.8622176366956680  0.1206430236010192  0.3625716093466096
  0.8629749298438014  0.1205698744379404  0.8633523857462464
  0.8637016178802313  0.6208978405913470  0.3635091610707377
  0.8637317811753604  0.6212204844223663  0.8637591596109147
  0.1206466447334975  0.3634099450578105  0.3635813477327474
  0.1208372079657920  0.3636712078690181  0.8636709355141505
  0.1209052381699749  0.8636467102773082  0.3636761893002287
  0.1227216558741020  0.8644689965902970  0.8641364876832753
  0.6148423290390710  0.3507830031599823  0.3589355955867291
  0.6204792568154005  0.3623294766269751  0.8628135507382098
  0.6197810830372248  0.8647027179199185  0.3629172615395788
  0.6205368030588616  0.8641659806005606  0.8637065151150551
  0.2577134936057988  0.1358514199462704  0.9991108842252032
  0.2580209213602913  0.1367093801082717  0.5001318217690951
  0.2579395767893331  0.6373522410866741  0.9997640844134850
  0.2578506917439540  0.6376831451894276  0.5003364114130591
  0.7551875067873155  0.1349803843965489  0.0000525015143111
  0.7574385594598780  0.1363522987577568  0.5006380151761860
  0.7575014317496027  0.6367128103865412  0.0002969235107244
  0.7570456754823383  0.6363182219733474  0.5001855674897868
  0.2616394930959345  0.0011674918026259  0.1393398257482872
  0.2583485197120226  0.9997267940999777  0.6369182363669594
  0.2578902136123986  0.5000732243219872  0.1373165808021568
  0.2568993040174874  0.5001681902438122  0.6363942328564178
  0.7560902049506169  0.0004004686691204  0.1357312366242027
  0.7565366933906574  0.9997330738996979  0.6360109058186652
  0.7571691126667730  0.4999439542015338  0.1365902413593290
  0.7565098786970026  0.5000618603813081  0.6364167952909128
  0.3851580198684843  0.2359408515776025  0.2440936519694290
  0.3795208626636324  0.2418502594785750  0.7423343187656641
  0.3802189423377200  0.7449214334029080  0.2431362018999721
  0.3794637376685372  0.7436291885952926  0.7431702019741451
  0.8772788863064491  0.2417474125924883  0.2414154272581186
  0.8790944685591526  0.2427406228947788  0.7427704445368448
  0.8791635053350575  0.7428342061253375  0.2428338381839978
  0.8793533468812029  0.7427630940022993  0.7429340674547475
  0.2434894848358908  0.2435517817561106  0.3799071783970120
  0.2428304997313262  0.2427741470937193  0.8794209893150509
  0.2434630004803822  0.7431965336288542  0.3794747585327514
  0.2439101857495274  0.7443102823037151  0.8796414917151978
  0.7383607474493772  0.2395283832297679  0.3777001256202013
  0.7416513287651725  0.2413781975939386  0.8785692744577673
  0.7421090448182639  0.7421827592671733  0.3794257398599967
  0.7431004151777714  0.7432686336002945  0.8794948189508105
  0.2429535707880248  0.3792723778243996  0.2431393741909886
  0.2425002872400555  0.3792119022030391  0.7427968902890143
  0.2425607400761791  0.8789136564756745  0.2431996428044201
  0.2448124441095842  0.8797933970679210  0.7448656078488582
  0.7422863862105018  0.3781384490527913  0.2413975807078828
  0.7419785343170062  0.3786878104150304  0.7421101399982888
  0.7420607353107158  0.8794135443834250  0.2418249578113532
  0.7421490584985406  0.8798327673566959  0.7424856941127800
  0.9999798937024167  0.0001983496452453  0.3589606223158768
  0.9999547843927061  0.9999907762095077  0.8589358666586335
  0.0000446283408877  0.5000357543094722  0.3589813824902492
  0.0000195909057368  0.5002173215263355  0.8589800096742195
  0.4999996759462633  0.0037172347580139  0.3568982200973423
  0.5000001360278290  0.9987211415946007  0.8588012113513557
  0.5000001526446027  0.4985909335394467  0.3594981921268854
  0.4999995813144977  0.5002214979466970  0.8591399064685916
  0.9997873197450104  0.3588124712051339  0.0000081302057495
  0.9994344439100118  0.3588662334330479  0.4998620230291309
  0.0005657860106965  0.8594316727457354  0.0004268551482696
  0.0002125919242459  0.8590255354283940  0.5002210256704842
  0.5000003153750114  0.3588433377787013  0.9996955427845293
  0.5000000401813622  0.3608385205965874  0.5036132734384751
  0.5000002014562881  0.8587495669427199  0.9986308224114495
  0.4999998316135503  0.8596251919067086  0.4990761096310266
  0.3606975384042741  0.0025183412135590  0.0030850433781282
  0.3589076011444376  0.9994574154392595  0.4991563064229894
  0.3591194191459550  0.5002732086915245  0.0003342758734064
  0.3588608112345923  0.5010722387058379  0.5004725160302286
  0.8593334882324370  0.0001810716423591  0.0000257898877436
  0.8588467706267906  0.9995932096704152  0.4997080069409634
  0.8589303168607785  0.4996514760911239  0.0000869932269438
  0.8576108063180783  0.4991314753175473  0.4988786519086474
  0.1423883973965232  0.1415203909783074  0.1412678507232243
  0.1410700551461375  0.1407222193126643  0.6411572220294417
  0.1411530274568520  0.6407462163895019  0.1408611771420425
  0.1406659408011350  0.6408478762105290  0.6406925953827596
  0.6393038098606851  0.1418218034956524  0.1423878257733620
  0.6410915611406054  0.1405496947761051  0.6402492280556373
  0.6408816560814898  0.6411545124448566  0.1412146911527330
  0.6411399224620666  0.6422116897712797  0.6416123525393331
  0.0000171281919776  0.3792363710275239  0.2561091967466353
  0.0001293106651516  0.3793938427337906  0.7563440215350852
  0.9998715228936774  0.8792658464010685  0.2562152266657307
  0.9999827154604759  0.8792188284783293  0.7560918821413694
  0.4999997768155993  0.3780861407317317  0.2568082954834594
  0.4999998402112666  0.3792860093325459  0.7568464667839976
  0.4999968782425768  0.8804535565758087  0.2557793380150883
  0.4999996385384833  0.8790400978239177  0.7545693438554508
  0.1207269074537507  0.1209928289116249  0.3769553439603897
  0.1205900857077111  0.1205649980981747  0.8764463534998228
  0.1207495195430965  0.6208976955714931  0.3768224388777242
  0.1207473795974749  0.6208138947741801  0.8768078881900294
  0.6264782370240098  0.1205623645102136  0.3815049580269800
  0.6203588028213858  0.1201505236256679  0.8761674836468956
  0.6203386837076508  0.6198597885738977  0.3769827149619971
  0.6210737842117027  0.6207818078631462  0.8771640400423948
  0.3735207385533670  0.9940841545059058  0.2550269700361412
  0.3796407189467104  0.9997909169439367  0.7558077918399491
  0.3796614984199564  0.4995208220608589  0.2566441084161113
  0.3789264839530020  0.4997090217259696  0.7560903216223025
  0.8792519997418395  0.0000666889471646  0.2560601363645887
  0.8792514622275505  0.0001480020664744  0.7560703740260095
  0.8794097125936773  0.4999746838581842  0.2558556605501323
  0.8792723253028711  0.5002639760414453  0.7562270139468623
  0.9996158513055136  0.2560502359746764  0.3791407954680324
  0.0001258838428981  0.2561922570913282  0.8792987004127539
  0.9998742375814942  0.7560668783045017  0.3791729798134469
  0.0003839898185234  0.7564333091325040  0.8795245769421456
  0.5000002512441455  0.2597734678336252  0.3847680572786771
  0.5000001974125468  0.2559754663378158  0.8790796239899805
  0.5000001531774103  0.7559817633910626  0.3787992592165210
  0.5000000061599934  0.7550518014128045  0.8779012140031526
  0.3789748573044420  0.2565576915019321  0.9994976345294475
  0.3786279018253254  0.2575349953535593  0.5026731494044085
  0.3793117150852225  0.7555962194028396  0.9990399205570526
  0.3793274350125486  0.7566149388669530  0.4997434398573830
  0.8791823324349082  0.2557859133900990  0.9997721317718700
  0.8794920948275262  0.2561464144730010  0.5004362849993740
  0.8795398237047962  0.7563170259438934  0.0001804049795737
  0.8793067724208186  0.7563130175557902  0.5001427659596089
  0.1206935047966340  0.3770063198464726  0.1208357536669098
  0.1204607427546591  0.3767758828966237  0.6206407415340749
  0.1205078308004275  0.8766542337723564  0.1209432500775947
  0.1208175610876694  0.8766037210922093  0.6205898707501731
  0.6210251726063163  0.3775832735744089  0.1205229152429368
  0.6213723466624756  0.3789071364468057  0.6240455944968915
  0.6206890375001990  0.8762856588966415  0.1197288237936789
  0.6206723006430153  0.8772877327068258  0.6204160967709313
  0.3704220271440235  0.1214269070184812  0.1139763596853882
  0.3771119977964830  0.1204707508356648  0.6205195780861814
  0.3769938768939056  0.6210023809939287  0.1209230713609912
  0.3763095456891321  0.6218255167945799  0.6208602462074069
  0.8772927510682962  0.1206860614307175  0.1210266617834108
  0.8769534504334473  0.1205869009538389  0.6205957258304906
  0.8768523163886641  0.6205414643883245  0.1208465547022328
  0.8763597747035661  0.6202207141810163  0.6203559375195269
  0.2560574767208905  0.3795046019432178  0.0001310856512617
  0.2557471399489941  0.3801925729394142  0.5004281770929069
  0.2570847075043119  0.8799794235768417  0.0010539292459697
  0.2558043842000473  0.8792382591137837  0.4997624955951636
  0.7559583905683454  0.3788306476230545  0.9997918798520971
  0.7549508759148580  0.3785072165023209  0.4991551135984196
  0.7567018406453485  0.8793369806998967  0.0001292119709859
  0.7561008019591355  0.8790598506039871  0.4999249040022207
  0.2554472100409342  0.0001405491650388  0.3796622261054097
  0.2565214304235823  0.9980341362137892  0.8778911025040088
  0.2558664503819372  0.5005775049356771  0.3792832838469380
  0.2561208310990608  0.5000056615265436  0.8793482901573810
  0.7564879559415019  0.9993512817389103  0.3788147579821910
  0.7565401599918076  0.0002202615685789  0.8793077614156246
  0.7572452459978223  0.5016686823069350  0.3794940739081483
  0.7563763187818608  0.5002615870425444  0.8797665251353237
  0.1236402825327545  0.2438614554852094  0.2439960647690924
  0.1231482833141584  0.2436893390792321  0.7439948371312468
  0.1230467723168545  0.7436336979683702  0.2436425768407560
  0.1227078344722159  0.7433938634685191  0.7437350230911406
  0.6295782198910942  0.2510052875950635  0.2435537658642843
  0.6228898834988499  0.2433611384897532  0.7434089526626551
  0.6230066013786981  0.7440091744189559  0.2439293569137817
  0.6236907610296711  0.7455158324384215  0.7445515354291672
  0.2427537288941082  0.2444226043261040  0.1222480888428947
  0.2436249053733093  0.2438865141320861  0.6233919218535320
  0.2435118418813076  0.7428628240872612  0.1223267298934942
  0.2434589811743919  0.7436801849838020  0.6227675323872006
  0.7434788524434595  0.2415140451819155  0.1213689744363720
  0.7445537218316289  0.2446919606922080  0.6242161106494137
  0.7438793581341514  0.7438850010268041  0.1232276577841560
  0.7441336849543063  0.7447120790026176  0.6234174403029371
  0.2450486327541199  0.1235565494336726  0.2442041675582942
  0.2440413426113537  0.1228721912050901  0.7438335300322336
  0.2438988173548253  0.6229587159442289  0.2438241135592847
  0.2432978218764887  0.6226353170815955  0.7434272129875055
  0.7429190964284871  0.1228984198631480  0.2439700461521852
  0.7441953810700355  0.1234340772924085  0.7439586636416493
  0.7439430143042998  0.6234475779989808  0.2440737159806119
  0.7442531136578054  0.6244455587712778  0.7446816245768417
  0.0004612578310343  0.0002514958867010  0.1142740255549271
  0.9999786390368683  0.9998332081493828  0.6140654088031852
  0.0000215350042581  0.4998546414576666  0.1140872019064929
  0.9995390778716882  0.4997906564059491  0.6138133332051439
  0.5000011229645764  0.9978709743253660  0.1095710595991690
  0.5000000494656121  0.0005938883673480  0.6146872165569519
  0.5000000286144655  0.5002574441150500  0.1142017419856103
  0.4999999225421945  0.5033203507987807  0.6167770680140450
  0.0000262053127500  0.1142036163253266  0.9999319860495390
  0.0001634615906880  0.1140708087358462  0.5001101381671162
  0.9998366220750157  0.6139070616405107  0.9999461992873080
  0.9999729078854429  0.6141779966551226  0.4999061180821371
  0.4999997902817057  0.1143819982342507  0.9998128921586229
  0.4999999340601846  0.1144866550960018  0.4990221433639874
  0.4999999600211424  0.6141419859401225  0.9999893914290112
  0.5000001174228998  0.6153303158731802  0.5005126997103986
  0.1135711927678145  0.0000674684446977  0.9996719952148254
  0.1140429022393263  0.9999578786750618  0.5000387386297618
  0.1139101606807600  0.4997676154738926  0.9998158743066696
  0.1141237220049049  0.5000066375096708  0.4999282417527624
  0.6144539158357603  0.9984870752254480  0.9975575113376749
  0.6139635154810676  0.9999792270303018  0.5006550659492035
  0.6141740101977149  0.5002845453976619  0.0001609762107648
  0.6140691670200340  0.5016900634671515  0.5021150130487584
  0.3859327853947576  0.3876216678005662  0.3880466832129912
  0.3858259628787053  0.3861105006131567  0.8859871007917164
  0.3860360821901949  0.8860158244900092  0.3866916608590358
  0.3855466626225805  0.8840334071766449  0.8831041144678053
  0.8864290814701477  0.3864970693422336  0.3861012701613902
  0.8859575338320269  0.3859147550007478  0.8859959916264444
  0.8860899840327647  0.8858576871071051  0.3859057362291978
  0.8858762781371610  0.8858819827212443  0.8858039924368697
 
  0.00000000E+00  0.00000000E+00  0.00000000E+00
  0.00000000E+00  0.00000000E+00  0.00000000E+00
  0.00000000E+00  0.00000000E+00  0.00000000E+00
  0.00000000E+00  0.00000000E+00  0.00000000E+00
  0.00000000E+00  0.00000000E+00  0.00000000E+00
  0.00000000E+00  0.00000000E+00  0.00000000E+00
  0.00000000E+00  0.00000000E+00  0.00000000E+00
  0.00000000E+00  0.00000000E+00  0.00000000E+00
  0.00000000E+00  0.00000000E+00  0.00000000E+00
  0.00000000E+00  0.00000000E+00  0.00000000E+00
  0.00000000E+00  0.00000000E+00  0.00000000E+00
  0.00000000E+00  0.00000000E+00  0.00000000E+00
  0.00000000E+00  0.00000000E+00  0.00000000E+00
  0.00000000E+00  0.00000000E+00  0.00000000E+00
  0.00000000E+00  0.00000000E+00  0.00000000E+00
  0.00000000E+00  0.00000000E+00  0.00000000E+00
  0.00000000E+00  0.00000000E+00  0.00000000E+00
  0.00000000E+00  0.00000000E+00  0.00000000E+00
  0.00000000E+00  0.00000000E+00  0.00000000E+00
  0.00000000E+00  0.00000000E+00  0.00000000E+00
  0.00000000E+00  0.00000000E+00  0.00000000E+00
  0.00000000E+00  0.00000000E+00  0.00000000E+00
  0.00000000E+00  0.00000000E+00  0.00000000E+00
  0.00000000E+00  0.00000000E+00  0.00000000E+00
  0.00000000E+00  0.00000000E+00  0.00000000E+00
  0.00000000E+00  0.00000000E+00  0.00000000E+00
  0.00000000E+00  0.00000000E+00  0.00000000E+00
  0.00000000E+00  0.00000000E+00  0.00000000E+00
  0.00000000E+00  0.00000000E+00  0.00000000E+00
  0.00000000E+00  0.00000000E+00  0.00000000E+00
  0.00000000E+00  0.00000000E+00  0.00000000E+00
  0.00000000E+00  0.00000000E+00  0.00000000E+00
  0.00000000E+00  0.00000000E+00  0.00000000E+00
  0.00000000E+00  0.00000000E+00  0.00000000E+00
  0.00000000E+00  0.00000000E+00  0.00000000E+00
  0.00000000E+00  0.00000000E+00  0.00000000E+00
  0.00000000E+00  0.00000000E+00  0.00000000E+00
  0.00000000E+00  0.00000000E+00  0.00000000E+00
  0.00000000E+00  0.00000000E+00  0.00000000E+00
  0.00000000E+00  0.00000000E+00  0.00000000E+00
  0.00000000E+00  0.00000000E+00  0.00000000E+00
  0.00000000E+00  0.00000000E+00  0.00000000E+00
  0.00000000E+00  0.00000000E+00  0.00000000E+00
  0.00000000E+00  0.00000000E+00  0.00000000E+00
  0.00000000E+00  0.00000000E+00  0.00000000E+00
  0.00000000E+00  0.00000000E+00  0.00000000E+00
  0.00000000E+00  0.00000000E+00  0.00000000E+00
  0.00000000E+00  0.00000000E+00  0.00000000E+00
  0.00000000E+00  0.00000000E+00  0.00000000E+00
  0.00000000E+00  0.00000000E+00  0.00000000E+00
  0.00000000E+00  0.00000000E+00  0.00000000E+00
  0.00000000E+00  0.00000000E+00  0.00000000E+00
  0.00000000E+00  0.00000000E+00  0.00000000E+00
  0.00000000E+00  0.00000000E+00  0.00000000E+00
  0.00000000E+00  0.00000000E+00  0.00000000E+00
  0.00000000E+00  0.00000000E+00  0.00000000E+00
  0.00000000E+00  0.00000000E+00  0.00000000E+00
  0.00000000E+00  0.00000000E+00  0.00000000E+00
  0.00000000E+00  0.00000000E+00  0.00000000E+00
  0.00000000E+00  0.00000000E+00  0.00000000E+00
  0.00000000E+00  0.00000000E+00  0.00000000E+00
  0.00000000E+00  0.00000000E+00  0.00000000E+00
  0.00000000E+00  0.00000000E+00  0.00000000E+00
  0.00000000E+00  0.00000000E+00  0.00000000E+00
  0.00000000E+00  0.00000000E+00  0.00000000E+00
  0.00000000E+00  0.00000000E+00  0.00000000E+00
  0.00000000E+00  0.00000000E+00  0.00000000E+00
  0.00000000E+00  0.00000000E+00  0.00000000E+00
  0.00000000E+00  0.00000000E+00  0.00000000E+00
  0.00000000E+00  0.00000000E+00  0.00000000E+00
  0.00000000E+00  0.00000000E+00  0.00000000E+00
  0.00000000E+00  0.00000000E+00  0.00000000E+00
  0.00000000E+00  0.00000000E+00  0.00000000E+00
  0.00000000E+00  0.00000000E+00  0.00000000E+00
  0.00000000E+00  0.00000000E+00  0.00000000E+00
  0.00000000E+00  0.00000000E+00  0.00000000E+00
  0.00000000E+00  0.00000000E+00  0.00000000E+00
  0.00000000E+00  0.00000000E+00  0.00000000E+00
  0.00000000E+00  0.00000000E+00  0.00000000E+00
  0.00000000E+00  0.00000000E+00  0.00000000E+00
  0.00000000E+00  0.00000000E+00  0.00000000E+00
  0.00000000E+00  0.00000000E+00  0.00000000E+00
  0.00000000E+00  0.00000000E+00  0.00000000E+00
  0.00000000E+00  0.00000000E+00  0.00000000E+00
  0.00000000E+00  0.00000000E+00  0.00000000E+00
  0.00000000E+00  0.00000000E+00  0.00000000E+00
  0.00000000E+00  0.00000000E+00  0.00000000E+00
  0.00000000E+00  0.00000000E+00  0.00000000E+00
  0.00000000E+00  0.00000000E+00  0.00000000E+00
  0.00000000E+00  0.00000000E+00  0.00000000E+00
  0.00000000E+00  0.00000000E+00  0.00000000E+00
  0.00000000E+00  0.00000000E+00  0.00000000E+00
  0.00000000E+00  0.00000000E+00  0.00000000E+00
  0.00000000E+00  0.00000000E+00  0.00000000E+00
  0.00000000E+00  0.00000000E+00  0.00000000E+00
  0.00000000E+00  0.00000000E+00  0.00000000E+00
  0.00000000E+00  0.00000000E+00  0.00000000E+00
  0.00000000E+00  0.00000000E+00  0.00000000E+00
  0.00000000E+00  0.00000000E+00  0.00000000E+00
  0.00000000E+00  0.00000000E+00  0.00000000E+00
  0.00000000E+00  0.00000000E+00  0.00000000E+00
  0.00000000E+00  0.00000000E+00  0.00000000E+00
  0.00000000E+00  0.00000000E+00  0.00000000E+00
  0.00000000E+00  0.00000000E+00  0.00000000E+00
  0.00000000E+00  0.00000000E+00  0.00000000E+00
  0.00000000E+00  0.00000000E+00  0.00000000E+00
  0.00000000E+00  0.00000000E+00  0.00000000E+00
  0.00000000E+00  0.00000000E+00  0.00000000E+00
  0.00000000E+00  0.00000000E+00  0.00000000E+00
  0.00000000E+00  0.00000000E+00  0.00000000E+00
  0.00000000E+00  0.00000000E+00  0.00000000E+00
  0.00000000E+00  0.00000000E+00  0.00000000E+00
  0.00000000E+00  0.00000000E+00  0.00000000E+00
  0.00000000E+00  0.00000000E+00  0.00000000E+00
  0.00000000E+00  0.00000000E+00  0.00000000E+00
  0.00000000E+00  0.00000000E+00  0.00000000E+00
  0.00000000E+00  0.00000000E+00  0.00000000E+00
  0.00000000E+00  0.00000000E+00  0.00000000E+00
  0.00000000E+00  0.00000000E+00  0.00000000E+00
  0.00000000E+00  0.00000000E+00  0.00000000E+00
  0.00000000E+00  0.00000000E+00  0.00000000E+00
  0.00000000E+00  0.00000000E+00  0.00000000E+00
  0.00000000E+00  0.00000000E+00  0.00000000E+00
  0.00000000E+00  0.00000000E+00  0.00000000E+00
  0.00000000E+00  0.00000000E+00  0.00000000E+00
  0.00000000E+00  0.00000000E+00  0.00000000E+00
  0.00000000E+00  0.00000000E+00  0.00000000E+00
  0.00000000E+00  0.00000000E+00  0.00000000E+00
  0.00000000E+00  0.00000000E+00  0.00000000E+00
  0.00000000E+00  0.00000000E+00  0.00000000E+00
  0.00000000E+00  0.00000000E+00  0.00000000E+00
  0.00000000E+00  0.00000000E+00  0.00000000E+00
  0.00000000E+00  0.00000000E+00  0.00000000E+00
  0.00000000E+00  0.00000000E+00  0.00000000E+00
  0.00000000E+00  0.00000000E+00  0.00000000E+00
  0.00000000E+00  0.00000000E+00  0.00000000E+00
  0.00000000E+00  0.00000000E+00  0.00000000E+00
  0.00000000E+00  0.00000000E+00  0.00000000E+00
  0.00000000E+00  0.00000000E+00  0.00000000E+00
  0.00000000E+00  0.00000000E+00  0.00000000E+00
  0.00000000E+00  0.00000000E+00  0.00000000E+00
  0.00000000E+00  0.00000000E+00  0.00000000E+00
  0.00000000E+00  0.00000000E+00  0.00000000E+00
  0.00000000E+00  0.00000000E+00  0.00000000E+00
  0.00000000E+00  0.00000000E+00  0.00000000E+00
  0.00000000E+00  0.00000000E+00  0.00000000E+00
  0.00000000E+00  0.00000000E+00  0.00000000E+00
  0.00000000E+00  0.00000000E+00  0.00000000E+00
  0.00000000E+00  0.00000000E+00  0.00000000E+00
  0.00000000E+00  0.00000000E+00  0.00000000E+00
  0.00000000E+00  0.00000000E+00  0.00000000E+00
  0.00000000E+00  0.00000000E+00  0.00000000E+00
  0.00000000E+00  0.00000000E+00  0.00000000E+00
  0.00000000E+00  0.00000000E+00  0.00000000E+00
  0.00000000E+00  0.00000000E+00  0.00000000E+00
  0.00000000E+00  0.00000000E+00  0.00000000E+00
  0.00000000E+00  0.00000000E+00  0.00000000E+00
  0.00000000E+00  0.00000000E+00  0.00000000E+00
  0.00000000E+00  0.00000000E+00  0.00000000E+00
  0.00000000E+00  0.00000000E+00  0.00000000E+00
  0.00000000E+00  0.00000000E+00  0.00000000E+00
  0.00000000E+00  0.00000000E+00  0.00000000E+00
  0.00000000E+00  0.00000000E+00  0.00000000E+00
  0.00000000E+00  0.00000000E+00  0.00000000E+00
  0.00000000E+00  0.00000000E+00  0.00000000E+00
  0.00000000E+00  0.00000000E+00  0.00000000E+00
  0.00000000E+00  0.00000000E+00  0.00000000E+00
  0.00000000E+00  0.00000000E+00  0.00000000E+00
  0.00000000E+00  0.00000000E+00  0.00000000E+00
  0.00000000E+00  0.00000000E+00  0.00000000E+00
  0.00000000E+00  0.00000000E+00  0.00000000E+00
  0.00000000E+00  0.00000000E+00  0.00000000E+00
  0.00000000E+00  0.00000000E+00  0.00000000E+00
  0.00000000E+00  0.00000000E+00  0.00000000E+00
  0.00000000E+00  0.00000000E+00  0.00000000E+00
  0.00000000E+00  0.00000000E+00  0.00000000E+00
  0.00000000E+00  0.00000000E+00  0.00000000E+00
  0.00000000E+00  0.00000000E+00  0.00000000E+00
  0.00000000E+00  0.00000000E+00  0.00000000E+00
  0.00000000E+00  0.00000000E+00  0.00000000E+00
  0.00000000E+00  0.00000000E+00  0.00000000E+00
  0.00000000E+00  0.00000000E+00  0.00000000E+00
  0.00000000E+00  0.00000000E+00  0.00000000E+00
  0.00000000E+00  0.00000000E+00  0.00000000E+00
  0.00000000E+00  0.00000000E+00  0.00000000E+00
  0.00000000E+00  0.00000000E+00  0.00000000E+00
  0.00000000E+00  0.00000000E+00  0.00000000E+00
  0.00000000E+00  0.00000000E+00  0.00000000E+00
  0.00000000E+00  0.00000000E+00  0.00000000E+00
  0.00000000E+00  0.00000000E+00  0.00000000E+00
  0.00000000E+00  0.00000000E+00  0.00000000E+00
  0.00000000E+00  0.00000000E+00  0.00000000E+00
  0.00000000E+00  0.00000000E+00  0.00000000E+00
  0.00000000E+00  0.00000000E+00  0.00000000E+00
  0.00000000E+00  0.00000000E+00  0.00000000E+00
  0.00000000E+00  0.00000000E+00  0.00000000E+00
  0.00000000E+00  0.00000000E+00  0.00000000E+00
  0.00000000E+00  0.00000000E+00  0.00000000E+00
  0.00000000E+00  0.00000000E+00  0.00000000E+00
  0.00000000E+00  0.00000000E+00  0.00000000E+00
  0.00000000E+00  0.00000000E+00  0.00000000E+00
  0.00000000E+00  0.00000000E+00  0.00000000E+00
  0.00000000E+00  0.00000000E+00  0.00000000E+00
  0.00000000E+00  0.00000000E+00  0.00000000E+00
  0.00000000E+00  0.00000000E+00  0.00000000E+00
  0.00000000E+00  0.00000000E+00  0.00000000E+00
  0.00000000E+00  0.00000000E+00  0.00000000E+00
  0.00000000E+00  0.00000000E+00  0.00000000E+00
  0.00000000E+00  0.00000000E+00  0.00000000E+00
  0.00000000E+00  0.00000000E+00  0.00000000E+00
  0.00000000E+00  0.00000000E+00  0.00000000E+00
  0.00000000E+00  0.00000000E+00  0.00000000E+00
  0.00000000E+00  0.00000000E+00  0.00000000E+00
  0.00000000E+00  0.00000000E+00  0.00000000E+00
  0.00000000E+00  0.00000000E+00  0.00000000E+00
  0.00000000E+00  0.00000000E+00  0.00000000E+00
  0.00000000E+00  0.00000000E+00  0.00000000E+00
  0.00000000E+00  0.00000000E+00  0.00000000E+00
  0.00000000E+00  0.00000000E+00  0.00000000E+00
  0.00000000E+00  0.00000000E+00  0.00000000E+00
  0.00000000E+00  0.00000000E+00  0.00000000E+00
  0.00000000E+00  0.00000000E+00  0.00000000E+00
  0.00000000E+00  0.00000000E+00  0.00000000E+00
  0.00000000E+00  0.00000000E+00  0.00000000E+00
  0.00000000E+00  0.00000000E+00  0.00000000E+00
  0.00000000E+00  0.00000000E+00  0.00000000E+00
  0.00000000E+00  0.00000000E+00  0.00000000E+00
  0.00000000E+00  0.00000000E+00  0.00000000E+00
  0.00000000E+00  0.00000000E+00  0.00000000E+00
  0.00000000E+00  0.00000000E+00  0.00000000E+00
  0.00000000E+00  0.00000000E+00  0.00000000E+00
  0.00000000E+00  0.00000000E+00  0.00000000E+00
  0.00000000E+00  0.00000000E+00  0.00000000E+00
  0.00000000E+00  0.00000000E+00  0.00000000E+00
  0.00000000E+00  0.00000000E+00  0.00000000E+00
  0.00000000E+00  0.00000000E+00  0.00000000E+00
  0.00000000E+00  0.00000000E+00  0.00000000E+00
  0.00000000E+00  0.00000000E+00  0.00000000E+00
  0.00000000E+00  0.00000000E+00  0.00000000E+00
  0.00000000E+00  0.00000000E+00  0.00000000E+00
  0.00000000E+00  0.00000000E+00  0.00000000E+00
  0.00000000E+00  0.00000000E+00  0.00000000E+00
  0.00000000E+00  0.00000000E+00  0.00000000E+00
  0.00000000E+00  0.00000000E+00  0.00000000E+00
  0.00000000E+00  0.00000000E+00  0.00000000E+00
  0.00000000E+00  0.00000000E+00  0.00000000E+00
  0.00000000E+00  0.00000000E+00  0.00000000E+00
  0.00000000E+00  0.00000000E+00  0.00000000E+00
  0.00000000E+00  0.00000000E+00  0.00000000E+00
  0.00000000E+00  0.00000000E+00  0.00000000E+00
  0.00000000E+00  0.00000000E+00  0.00000000E+00
  0.00000000E+00  0.00000000E+00  0.00000000E+00
  0.00000000E+00  0.00000000E+00  0.00000000E+00
  0.00000000E+00  0.00000000E+00  0.00000000E+00
  0.00000000E+00  0.00000000E+00  0.00000000E+00
