Li63 Nb65 O192                          
   1.00000000000000     
    15.1469600000000000   -0.0012470000000000   -0.0011610000000000
     1.0576070000000000   15.1097420000000007   -0.0009680000000000
     1.0576360000000000    0.9859670000000000   15.0777149999999995
   Li   Nb   O 
    63    65   192
Direct
  0.2484316711146093  0.2471466863156522  0.2483650822970773
  0.2479860880623477  0.2483014009826476  0.7530982698098612
  0.2501006300594213  0.7507371307054953  0.2496632698064687
  0.2490982484000952  0.7508368732917177  0.7507887945163816
  0.7536735546185795  0.2477803600407782  0.2491168171604343
  0.7504405009003108  0.2489814180340559  0.7517829333975925
  0.7508200569342236  0.7504110571714904  0.2497075549748260
  0.7507653597955795  0.7502234195590489  0.7508110470221752
  0.0000070768460816  0.2496445911996190  0.0008724382236096
  0.9998699939633156  0.2469807305064791  0.5009125053796808
  0.0002745896021779  0.7502721129572905  0.0002720465252750
  0.0008717894874621  0.7500057998977567  0.4996459697296771
  0.4969815366480290  0.2509132976060613  0.9998713647210451
  0.4996455199106222  0.7508709569385132  0.0000069170553942
  0.5009109871301050  0.7498729676564295  0.4969842020572628
  0.2496644284619762  0.0000996428576414  0.0007375839086734
  0.2483671418012108  0.9984351372852842  0.4971503230230212
  0.2497080589791310  0.5008189571103330  0.0004119532387108
  0.2491171007573669  0.5036728709451097  0.4977825962999631
  0.7507898271215296  0.9990960555065769  0.0008394530834082
  0.7530956337784716  0.9979888736349949  0.4983056816673539
  0.7508117212933598  0.5007656147523889  0.0002239394206001
  0.7517818381910644  0.5004399161656536  0.4989828496297406
  0.0007384129108345  0.9996627392980528  0.2501020239107561
  0.0004110221660909  0.9997063172714249  0.7508204101343381
  0.0008388760978804  0.5007892360662325  0.2490972897126724
  0.0002237270225507  0.5008103166888205  0.7507665823982137
  0.4971445053620798  0.9983640027152134  0.2484319787486982
  0.4977785918822590  0.9991148882982444  0.7536721769932697
  0.4983021588645258  0.5030958747528231  0.2479879975040973
  0.4989821125956269  0.5017801971672071  0.7504392663224664
  0.0006341952678213  0.9997537162337764  0.0000573953217042
  0.0008386196873786  0.0006536559641646  0.4992875171250049
  0.0003149512545733  0.5001033726880380  0.0000784666999678
  0.9996272103062083  0.5026870821521570  0.4994524035320183
  0.4990080773429568  0.9978695710298240  0.0007345333375568
  0.4983016807301013  0.9979033176906782  0.4974689146541138
  0.4992738393636316  0.5004896540482022  0.0008178771337768
  0.4977436220341076  0.5017267663498899  0.4990206870511855
  0.2500175581966104  0.0000174030139917  0.2500161973811927
  0.2476855414959189  0.9978049905856139  0.7540281263868778
  0.2478022933901229  0.5040327887779270  0.2476800268362851
  0.2486305214644133  0.5021341276534272  0.7542494387875109
  0.7540341726101829  0.9976810002850129  0.2478013109049613
  0.7542510517383079  0.9986279005688061  0.7521343071891735
  0.7521354981958268  0.5042516138070354  0.2486275086196699
  0.7504717636589788  0.5004719782429987  0.7504718756168813
  0.0007361786176432  0.2490087599735133  0.2478690620527431
  0.0008193600899915  0.2492737362182211  0.7504898728368516
  0.0000584560948340  0.7506345476145668  0.2497533269323071
  0.0000796698431671  0.7503148963790238  0.7501029035096280
  0.4974630096815176  0.2483048122182652  0.2479045986928625
  0.4990209572128279  0.2477430531628784  0.7517260656407032
  0.4992874736882698  0.7508393901877923  0.2506535410811424
  0.4994513252232551  0.7496276309633032  0.7526858127766047
  0.2506545187494780  0.2492878564554388  0.0008394166567172
  0.2479048362244072  0.2474626802012310  0.4983012208225901
  0.2497528487513492  0.7500584160953494  0.0006331937102004
  0.2478716273514294  0.7507362662600769  0.4990099409236777
  0.7526882481545201  0.2494529134235748  0.9996273679804801
  0.7517296277623657  0.2490186331896496  0.4977422311569200
  0.7501032073871983  0.7500798982890302  0.0003150104031064
  0.7504893690284078  0.7508179130946360  0.4992744961002700
  0.5023704017838355  0.2523651979780794  0.5023569445538811
  0.1094595175354129  0.1086668642523634  0.1088712331107828
  0.1096462861666083  0.1087077814856201  0.6090090741590473
  0.1084956010866449  0.6092555065922127  0.1085419050259091
  0.1085881053371835  0.6095432686220903  0.6091445480377971
  0.6083644222714781  0.1095867712905090  0.1054839580012796
  0.6140802674084611  0.0976185576473654  0.6107360479297910
  0.6085013454544779  0.6098063020777644  0.1089082352620068
  0.6084941441601401  0.6088274090855563  0.6083001061641795
  0.3589553874679154  0.1089540065767665  0.3589545428073109
  0.3589830543731480  0.1082897936329061  0.8601654388442768
  0.3582920347643821  0.6101659721243422  0.3589805552783076
  0.3585714277528496  0.6088972033707805  0.8594602335782966
  0.8601688445965578  0.1089805952902125  0.3582905783546124
  0.8594627046971013  0.1085686700711577  0.8588993057072614
  0.8589001012098194  0.6094597295345210  0.3585698278943923
  0.8586767228326408  0.6086745725497025  0.8586749625310119
  0.1054864066131316  0.3583614767989829  0.3595865670262555
  0.1089105255614129  0.3584969232463138  0.8598059611996760
  0.1088720881571703  0.8594578543194089  0.3586685038026971
  0.1085444261717825  0.8584931915435021  0.8592556656008341
  0.6107339735839119  0.3640805551441346  0.3476172777316435
  0.6083017412739267  0.3584917400847019  0.8588285753121383
  0.6090096954845379  0.8596458708448935  0.3587101919528948
  0.6091457014726842  0.8585861066419156  0.8595455454220939
  0.3587113969798423  0.3590074641478012  0.1096458758687007
  0.3476166144599020  0.3607263939851322  0.6140812342772080
  0.3586698668620869  0.8588698945510131  0.1094571522035679
  0.3595858180527287  0.8554913792118484  0.6083647740826592
  0.8595471705249835  0.3591436580307388  0.1085863997764349
  0.8588297577356272  0.3582982726226689  0.6084933851061933
  0.8592580936564289  0.8585415662722795  0.1084941552184091
  0.8598073772387664  0.8589074897565752  0.6084991143652729
  0.3490272513130179  0.3626391430695080  0.3557585468048003
  0.3580742471596281  0.3593058412051562  0.8600189814324892
  0.3587443938555523  0.8594923903014049  0.3588296399850393
  0.3581541087231770  0.8588204101393799  0.8596952339366126
  0.8603570681329131  0.3586250535456017  0.3584316725496279
  0.8588137868159862  0.3587235801557185  0.8590646299244042
  0.8594450447539614  0.8585790655775014  0.3587496323215618
  0.8588601144063830  0.8582914684789387  0.8591840601506107
  0.1093492311403494  0.3588902373763716  0.1091010032697213
  0.1052452761638492  0.3600514022466825  0.6080180239171682
  0.1089558690202708  0.8589536650833338  0.1089555790757402
  0.1091007623257170  0.8593461213307947  0.6088927128882489
  0.6100560968369635  0.3580156922090225  0.1052453479589985
  0.6101050157252246  0.3601012297682686  0.6101036878661787
  0.6088927200177068  0.8590988808247531  0.1093496270766252
  0.6080168284440433  0.8552450722658804  0.6100557056156575
  0.3588288274317009  0.1087423064749871  0.1094942945316006
  0.3557603859821299  0.0990415112777114  0.6126346238060520
  0.3587489979400118  0.6094433563996304  0.1085812272870683
  0.3584330638582145  0.6103575462185304  0.6086269165291114
  0.8596971036817536  0.1081516424247297  0.1088235651403267
  0.8600172399591841  0.1080719026218233  0.6093095572035736
  0.8591843587819312  0.6088591288471008  0.1082938369546653
  0.8590641687850962  0.6088108343799306  0.6087261619980993
  0.1094942507153434  0.1088257844423381  0.3587456444193862
  0.1085814001582364  0.1087456061311372  0.8594461422826214
  0.1088223922258749  0.6096938075117535  0.3581542484229772
  0.1082941887246704  0.6091813067538183  0.8588606086325683
  0.6126389069460672  0.1057539889918786  0.3490273066250325
  0.6086278632770501  0.1084288329925371  0.8603580128392991
  0.6093085780970853  0.6100168439488982  0.3580743338245753
  0.6087259603636568  0.6090613843237662  0.8588130577372937
  0.3146732411959263  0.2266865077829152  0.3799746345118464
  0.3153501353154979  0.2265103113474964  0.8797581727289838
  0.3143486351733600  0.7270287132112045  0.3806150478979760
  0.3149527298643946  0.7267966187845829  0.8799479738429952
  0.8140115672113595  0.2270943942952570  0.3778245301268086
  0.8147350018643351  0.2266244312695207  0.8788270295253042
  0.8145079998783231  0.7268803733418636  0.3794927125135956
  0.8144971123877269  0.7265470362877977  0.8792852391001560
  0.0650069899170589  0.2265911430995828  0.1291095070972688
  0.0647428862112776  0.2266395540177015  0.6288465557016210
  0.0645319174290577  0.7267542961230262  0.1296229421068062
  0.0645914420205926  0.7269049793090261  0.6295680470996743
  0.5645651037950401  0.2258729551788718  0.1306241897197893
  0.5620018582259334  0.2227630016041147  0.6247217289354126
  0.5646370268184313  0.7269542065870098  0.1304110125692475
  0.5639810288547622  0.7273520923575134  0.6302324490763311
  0.3148759289368428  0.4765180775521500  0.1303125421444946
  0.3125690956468290  0.4779865240620893  0.6333684586302439
  0.3147836304825944  0.9767286251967207  0.1298151660385471
  0.3137119202782159  0.9763346738804444  0.6312442087051124
  0.8147737469441054  0.4764869190390471  0.1295098145621978
  0.8143057375446006  0.4757613712309450  0.6287828188921551
  0.8146686591957177  0.9766964648093861  0.1285301159111683
  0.8141476446549447  0.9769612893820678  0.6287834478489742
  0.0645036450710563  0.4760641818215205  0.3799627118700286
  0.0649300337682490  0.4763643098579280  0.8794310366221580
  0.0643706955766206  0.9771100673134043  0.3792688761922633
  0.0649101918389121  0.9767161833129876  0.8793040808482431
  0.5639400297056270  0.4760849666587603  0.3803205228570619
  0.5649752630438343  0.4757820681602425  0.8797808152274413
  0.5646447959060907  0.9776714898457470  0.3805448492561467
  0.5647130407483019  0.9769720134881794  0.8797939279065616
  0.3805380961554903  0.3146473696615857  0.2276694251444766
  0.3803219532818147  0.3139404277182933  0.7260845349751222
  0.3792686324062373  0.8143747042768794  0.2271101430908544
  0.3799626456951941  0.8145046374765315  0.7260637646712098
  0.8797938256815172  0.3147139149343303  0.2269719675330606
  0.8797840907917944  0.3149769812303091  0.7257823791728839
  0.8793040283621210  0.8149126232999961  0.2267168823660910
  0.8794313930817097  0.8149307510073598  0.7263646938164854
  0.1306231812356771  0.3145650160198485  0.4758736159089025
  0.1304129855641065  0.3146382822223259  0.9769531973629810
  0.1291107451952769  0.8150073431510165  0.4765914049687368
  0.1296228750165866  0.8145323681341949  0.9767546060429737
  0.6247262301297738  0.3120080521180171  0.4727617884600051
  0.6302308683347775  0.3139802532483955  0.9773525308029036
  0.6288469496428704  0.8147452257344483  0.4766394439458352
  0.6295691561639103  0.8145916614176443  0.9769065693684880
  0.3799757641686554  0.0646749042233239  0.4766859563904120
  0.3806164195382564  0.0643517742414019  0.9770274790453470
  0.3778271115318219  0.5640131983163030  0.4770929681922880
  0.3794928302130813  0.5645089626070430  0.9768800284997496
  0.8797606984592932  0.0653529939763686  0.4765095748123045
  0.8799498095028468  0.0649546728746557  0.9767983088691352
  0.8788273334807712  0.5647357970774252  0.4766241232269053
  0.8792846392651512  0.5645013913949484  0.9765477676181078
  0.1298170826994962  0.0647857206633873  0.2267289025672667
  0.1303133137311292  0.0648761929242880  0.7265178392678919
  0.1285304599703920  0.5646700415799515  0.2266962331397622
  0.1295099068959686  0.5647734842502956  0.7264862260540710
  0.6312472924488119  0.0637113782683798  0.2263326450461491
  0.6333711875030232  0.0625657321644795  0.7279919722063966
  0.6287836765948143  0.5641487965728373  0.2269611093319313
  0.6287829634445998  0.5643068320904234  0.7257621376431018
  0.2263308587796473  0.3812447112912452  0.3137099503618259
  0.2269613079738306  0.3787846639622074  0.8141475480576048
  0.2267274287597019  0.8798220611305752  0.3147882201132006
  0.2266952775507747  0.8785324240680765  0.8146702514832995
  0.7279893257632395  0.3833725999239803  0.3125643557367468
  0.7257619079080584  0.3787843443437851  0.8143076590316838
  0.7265165462576419  0.8803149793069807  0.3148771783253466
  0.7264859376359780  0.8795107368556998  0.8147747236401344
  0.4766395575620592  0.3788473622358381  0.0647447106396442
  0.4727637216287377  0.3747148145728332  0.5620031345194789
  0.4765906977304368  0.8791118636419384  0.0650080634730585
  0.4758739452036664  0.8806227236267432  0.5645664859596096
  0.9769060569432355  0.3795698887660492  0.0645911645917963
  0.9773522312956615  0.3802335664062895  0.5639810379349655
  0.9767540047212719  0.8796241812999810  0.0645333742489242
  0.9769525497444533  0.8804129204241846  0.5646393193440957
  0.2271089922956619  0.1292736543832120  0.0643754165526573
  0.2276680722916993  0.1305381567713439  0.5646461833127603
  0.2267161273968910  0.6293071274315594  0.0649140913208086
  0.2269729864147720  0.6297924129560712  0.5647146731851080
  0.7260629032625658  0.1299640095620092  0.0645050072946560
  0.7260836147066954  0.1303211359628946  0.5639438151945555
  0.7263638462046842  0.6294334063075411  0.0649312656028087
  0.7257820811996893  0.6297809884803414  0.5649770558932588
  0.4766858334956794  0.1299768547638891  0.3146762596495734
  0.4770931462707679  0.1278278024557551  0.8140135408589018
  0.4765092906908706  0.6297627384762379  0.3153524469088040
  0.4766237700161895  0.6288280596764366  0.8147359236628375
  0.9770270520523425  0.1306182995348948  0.3143509379308966
  0.9768797561288878  0.1294938362408118  0.8145094264663371
  0.9767973063789412  0.6299507572241367  0.3149548257838077
  0.9765474501025082  0.6292851763116261  0.8145020620843795
  0.3143886715784774  0.1296433327700157  0.2269163393490956
  0.3144300515406897  0.1315861022308979  0.7263834082696476
  0.3150045946919775  0.6293672707359903  0.2269992181039200
  0.3154333685908455  0.6311514513440883  0.7260556468076800
  0.8141347355427158  0.1282327515518986  0.2268518704372227
  0.8145835221202660  0.1291591409093868  0.7265710387129900
  0.8148432027789241  0.6287890948933281  0.2266764429072055
  0.8144644673755224  0.6291807644399867  0.7263323148007643
  0.0650365573029887  0.1292475253611443  0.4766329095548727
  0.0644872196261375  0.1296010374913834  0.9768345965874232
  0.0651480501378785  0.6289293063921804  0.4765764739743616
  0.0645759974614890  0.6295533749133355  0.9767335638620978
  0.5611082801210188  0.1345936242328492  0.4744977018928367
  0.5635589852011407  0.1312702142988442  0.9776370877558236
  0.5646512922061646  0.6292090591226369  0.4765347201868551
  0.5650160908108788  0.6295090679557731  0.9766840553402929
  0.3147751615437215  0.3795834178651489  0.4765250691609779
  0.3147080447916863  0.3801517527533633  0.9771931991311646
  0.3145102199723837  0.8802937770345309  0.4767117376916232
  0.3146785825299290  0.8801877756381060  0.9768495355981273
  0.8136233548811589  0.3782893151171436  0.4758889330048888
  0.8143234232492347  0.3791713641631418  0.9768775673856211
  0.8147452147682586  0.8788082778768072  0.4767229756511142
  0.8145164139283878  0.8792601127696855  0.9766846010766912
  0.0642986671437029  0.3791879184631952  0.2269492030546019
  0.0652762268277485  0.3797110907674863  0.7258715568755107
  0.0645920425738282  0.8794674938349090  0.2267463011556572
  0.0648908478685257  0.8798209307232341  0.7264032318540430
  0.5625069197252728  0.3785972141410028  0.2271058038497245
  0.5635719701983533  0.3798015501672083  0.7257214632444260
  0.5646294276168859  0.8803572421360712  0.2270933220432099
  0.5646468972618806  0.8809208027499338  0.7259993496503725
  0.2270925774941546  0.3146292966554185  0.1303561920551530
  0.2271064930461151  0.3125026125737520  0.6286003736595589
  0.2267464948049351  0.8145908060086740  0.1294678238984943
  0.2269491473793082  0.8142992983612203  0.6291882480357458
  0.7259993813894070  0.3146460461329923  0.1309205028153784
  0.7257234649299420  0.3135701729464984  0.6298032748862923
  0.7264033351424644  0.8148902978628243  0.1298221128876094
  0.7258711128165842  0.8152758921534087  0.6297120438973636
  0.4744877763264270  0.3111066877079693  0.3845864495276032
  0.4765363366545898  0.3146491986838527  0.8792083472711596
  0.4766334210553111  0.8150374313730779  0.3792472820217085
  0.4765764137059350  0.8151474946047301  0.8789302856090089
  0.9776354675774996  0.3135590896440803  0.3812706853500103
  0.9766840542613551  0.3150158875782125  0.8795115257677892
  0.9768335050886634  0.8144871688142103  0.3796024477283240
  0.9767331298212625  0.8145750008452879  0.8795539253687537
  0.2269165733846421  0.0643865268726032  0.3796443370948595
  0.2269996359600839  0.0650047423635769  0.8793674158834435
  0.2268517590753660  0.5641353100505739  0.3782335975371538
  0.2266765278469265  0.5648424901102231  0.8787893635405908
  0.7263827667670526  0.0644318678128570  0.3815871425222710
  0.7260561135240806  0.0654329320038798  0.8811547626115299
  0.7265698590369283  0.5645840436740670  0.3791591729548358
  0.7263317418733450  0.5644636647922638  0.8791808989822698
  0.4767108724117932  0.0645076916827634  0.1302956266655571
  0.4765249787950268  0.0647776296993641  0.6295802530419721
  0.4767226925875292  0.5647450670004943  0.1288085167198361
  0.4758888880932091  0.5636208662692965  0.6282881121854516
  0.9768501220444037  0.0646787658837411  0.1301895162257409
  0.9771933005460767  0.0647071102682020  0.6301515957754020
  0.9766842978038426  0.5645157700944594  0.1292605564793803
  0.9768770119445165  0.5643227403756441  0.6291721018182486
  0.1302929721971822  0.2267110968564836  0.3145095308401977
  0.1288078000219315  0.2267223067083677  0.8147457349684544
  0.1301882525713793  0.7268504669733602  0.3146785668638188
  0.1292606003304826  0.7266843587986429  0.8145155896722329
  0.6295774747611205  0.2265249382687387  0.3147818632619703
  0.6282896936361055  0.2258890085662131  0.8136229358229130
  0.6301510781109911  0.7271949940471458  0.3147073084091545
  0.6291716870073429  0.7268777216690907  0.8143230062773554
  0.3792485130583998  0.2266327307399933  0.0650360614812229
  0.3845851429418801  0.2244972029929713  0.5611000796641292
  0.3796024875586568  0.7268342988653842  0.0644865302770512
  0.3812696586315170  0.7276360961351926  0.5635596172179476
  0.8789301059549928  0.2265763275467805  0.0651478229181066
  0.8792079797330317  0.2265345445254496  0.5646473943741768
  0.8795552386417924  0.7267341762305435  0.0645762177440616
  0.8795105517458452  0.7266839052813410  0.5650158884967809
  0.1298211098793089  0.4764038721723907  0.0648908188008477
  0.1309207670600117  0.4759986400485872  0.5646469353233101
  0.1294683516191171  0.9767466706661807  0.0645907829555910
  0.1303553958949735  0.9770923165129517  0.5646289264952031
  0.6297126826830564  0.4758730145628718  0.0652765325398832
  0.6298025315006299  0.4757216458195828  0.5635707265506724
  0.6291882602696930  0.9769492319657260  0.0642996630689225
  0.6285983073604839  0.9771083234031650  0.5625075670771764
  0.3815853008715209  0.4763859338677676  0.3144285139514409
  0.3791587684502602  0.4765699817415694  0.8145832510624302
  0.3796434266850923  0.9769161371714787  0.3143875472177484
  0.3782326747642273  0.9768517539071127  0.8141353023191726
  0.8811528805175257  0.4760560251342341  0.3154325953213828
  0.8791809882555555  0.4763325673578009  0.8144643422613456
  0.8793651823563167  0.9770001364289982  0.3150045998910329
  0.8787883178658120  0.9766763729081305  0.8148430565908242
 
  0.00000000E+00  0.00000000E+00  0.00000000E+00
  0.00000000E+00  0.00000000E+00  0.00000000E+00
  0.00000000E+00  0.00000000E+00  0.00000000E+00
  0.00000000E+00  0.00000000E+00  0.00000000E+00
  0.00000000E+00  0.00000000E+00  0.00000000E+00
  0.00000000E+00  0.00000000E+00  0.00000000E+00
  0.00000000E+00  0.00000000E+00  0.00000000E+00
  0.00000000E+00  0.00000000E+00  0.00000000E+00
  0.00000000E+00  0.00000000E+00  0.00000000E+00
  0.00000000E+00  0.00000000E+00  0.00000000E+00
  0.00000000E+00  0.00000000E+00  0.00000000E+00
  0.00000000E+00  0.00000000E+00  0.00000000E+00
  0.00000000E+00  0.00000000E+00  0.00000000E+00
  0.00000000E+00  0.00000000E+00  0.00000000E+00
  0.00000000E+00  0.00000000E+00  0.00000000E+00
  0.00000000E+00  0.00000000E+00  0.00000000E+00
  0.00000000E+00  0.00000000E+00  0.00000000E+00
  0.00000000E+00  0.00000000E+00  0.00000000E+00
  0.00000000E+00  0.00000000E+00  0.00000000E+00
  0.00000000E+00  0.00000000E+00  0.00000000E+00
  0.00000000E+00  0.00000000E+00  0.00000000E+00
  0.00000000E+00  0.00000000E+00  0.00000000E+00
  0.00000000E+00  0.00000000E+00  0.00000000E+00
  0.00000000E+00  0.00000000E+00  0.00000000E+00
  0.00000000E+00  0.00000000E+00  0.00000000E+00
  0.00000000E+00  0.00000000E+00  0.00000000E+00
  0.00000000E+00  0.00000000E+00  0.00000000E+00
  0.00000000E+00  0.00000000E+00  0.00000000E+00
  0.00000000E+00  0.00000000E+00  0.00000000E+00
  0.00000000E+00  0.00000000E+00  0.00000000E+00
  0.00000000E+00  0.00000000E+00  0.00000000E+00
  0.00000000E+00  0.00000000E+00  0.00000000E+00
  0.00000000E+00  0.00000000E+00  0.00000000E+00
  0.00000000E+00  0.00000000E+00  0.00000000E+00
  0.00000000E+00  0.00000000E+00  0.00000000E+00
  0.00000000E+00  0.00000000E+00  0.00000000E+00
  0.00000000E+00  0.00000000E+00  0.00000000E+00
  0.00000000E+00  0.00000000E+00  0.00000000E+00
  0.00000000E+00  0.00000000E+00  0.00000000E+00
  0.00000000E+00  0.00000000E+00  0.00000000E+00
  0.00000000E+00  0.00000000E+00  0.00000000E+00
  0.00000000E+00  0.00000000E+00  0.00000000E+00
  0.00000000E+00  0.00000000E+00  0.00000000E+00
  0.00000000E+00  0.00000000E+00  0.00000000E+00
  0.00000000E+00  0.00000000E+00  0.00000000E+00
  0.00000000E+00  0.00000000E+00  0.00000000E+00
  0.00000000E+00  0.00000000E+00  0.00000000E+00
  0.00000000E+00  0.00000000E+00  0.00000000E+00
  0.00000000E+00  0.00000000E+00  0.00000000E+00
  0.00000000E+00  0.00000000E+00  0.00000000E+00
  0.00000000E+00  0.00000000E+00  0.00000000E+00
  0.00000000E+00  0.00000000E+00  0.00000000E+00
  0.00000000E+00  0.00000000E+00  0.00000000E+00
  0.00000000E+00  0.00000000E+00  0.00000000E+00
  0.00000000E+00  0.00000000E+00  0.00000000E+00
  0.00000000E+00  0.00000000E+00  0.00000000E+00
  0.00000000E+00  0.00000000E+00  0.00000000E+00
  0.00000000E+00  0.00000000E+00  0.00000000E+00
  0.00000000E+00  0.00000000E+00  0.00000000E+00
  0.00000000E+00  0.00000000E+00  0.00000000E+00
  0.00000000E+00  0.00000000E+00  0.00000000E+00
  0.00000000E+00  0.00000000E+00  0.00000000E+00
  0.00000000E+00  0.00000000E+00  0.00000000E+00
  0.00000000E+00  0.00000000E+00  0.00000000E+00
  0.00000000E+00  0.00000000E+00  0.00000000E+00
  0.00000000E+00  0.00000000E+00  0.00000000E+00
  0.00000000E+00  0.00000000E+00  0.00000000E+00
  0.00000000E+00  0.00000000E+00  0.00000000E+00
  0.00000000E+00  0.00000000E+00  0.00000000E+00
  0.00000000E+00  0.00000000E+00  0.00000000E+00
  0.00000000E+00  0.00000000E+00  0.00000000E+00
  0.00000000E+00  0.00000000E+00  0.00000000E+00
  0.00000000E+00  0.00000000E+00  0.00000000E+00
  0.00000000E+00  0.00000000E+00  0.00000000E+00
  0.00000000E+00  0.00000000E+00  0.00000000E+00
  0.00000000E+00  0.00000000E+00  0.00000000E+00
  0.00000000E+00  0.00000000E+00  0.00000000E+00
  0.00000000E+00  0.00000000E+00  0.00000000E+00
  0.00000000E+00  0.00000000E+00  0.00000000E+00
  0.00000000E+00  0.00000000E+00  0.00000000E+00
  0.00000000E+00  0.00000000E+00  0.00000000E+00
  0.00000000E+00  0.00000000E+00  0.00000000E+00
  0.00000000E+00  0.00000000E+00  0.00000000E+00
  0.00000000E+00  0.00000000E+00  0.00000000E+00
  0.00000000E+00  0.00000000E+00  0.00000000E+00
  0.00000000E+00  0.00000000E+00  0.00000000E+00
  0.00000000E+00  0.00000000E+00  0.00000000E+00
  0.00000000E+00  0.00000000E+00  0.00000000E+00
  0.00000000E+00  0.00000000E+00  0.00000000E+00
  0.00000000E+00  0.00000000E+00  0.00000000E+00
  0.00000000E+00  0.00000000E+00  0.00000000E+00
  0.00000000E+00  0.00000000E+00  0.00000000E+00
  0.00000000E+00  0.00000000E+00  0.00000000E+00
  0.00000000E+00  0.00000000E+00  0.00000000E+00
  0.00000000E+00  0.00000000E+00  0.00000000E+00
  0.00000000E+00  0.00000000E+00  0.00000000E+00
  0.00000000E+00  0.00000000E+00  0.00000000E+00
  0.00000000E+00  0.00000000E+00  0.00000000E+00
  0.00000000E+00  0.00000000E+00  0.00000000E+00
  0.00000000E+00  0.00000000E+00  0.00000000E+00
  0.00000000E+00  0.00000000E+00  0.00000000E+00
  0.00000000E+00  0.00000000E+00  0.00000000E+00
  0.00000000E+00  0.00000000E+00  0.00000000E+00
  0.00000000E+00  0.00000000E+00  0.00000000E+00
  0.00000000E+00  0.00000000E+00  0.00000000E+00
  0.00000000E+00  0.00000000E+00  0.00000000E+00
  0.00000000E+00  0.00000000E+00  0.00000000E+00
  0.00000000E+00  0.00000000E+00  0.00000000E+00
  0.00000000E+00  0.00000000E+00  0.00000000E+00
  0.00000000E+00  0.00000000E+00  0.00000000E+00
  0.00000000E+00  0.00000000E+00  0.00000000E+00
  0.00000000E+00  0.00000000E+00  0.00000000E+00
  0.00000000E+00  0.00000000E+00  0.00000000E+00
  0.00000000E+00  0.00000000E+00  0.00000000E+00
  0.00000000E+00  0.00000000E+00  0.00000000E+00
  0.00000000E+00  0.00000000E+00  0.00000000E+00
  0.00000000E+00  0.00000000E+00  0.00000000E+00
  0.00000000E+00  0.00000000E+00  0.00000000E+00
  0.00000000E+00  0.00000000E+00  0.00000000E+00
  0.00000000E+00  0.00000000E+00  0.00000000E+00
  0.00000000E+00  0.00000000E+00  0.00000000E+00
  0.00000000E+00  0.00000000E+00  0.00000000E+00
  0.00000000E+00  0.00000000E+00  0.00000000E+00
  0.00000000E+00  0.00000000E+00  0.00000000E+00
  0.00000000E+00  0.00000000E+00  0.00000000E+00
  0.00000000E+00  0.00000000E+00  0.00000000E+00
  0.00000000E+00  0.00000000E+00  0.00000000E+00
  0.00000000E+00  0.00000000E+00  0.00000000E+00
  0.00000000E+00  0.00000000E+00  0.00000000E+00
  0.00000000E+00  0.00000000E+00  0.00000000E+00
  0.00000000E+00  0.00000000E+00  0.00000000E+00
  0.00000000E+00  0.00000000E+00  0.00000000E+00
  0.00000000E+00  0.00000000E+00  0.00000000E+00
  0.00000000E+00  0.00000000E+00  0.00000000E+00
  0.00000000E+00  0.00000000E+00  0.00000000E+00
  0.00000000E+00  0.00000000E+00  0.00000000E+00
  0.00000000E+00  0.00000000E+00  0.00000000E+00
  0.00000000E+00  0.00000000E+00  0.00000000E+00
  0.00000000E+00  0.00000000E+00  0.00000000E+00
  0.00000000E+00  0.00000000E+00  0.00000000E+00
  0.00000000E+00  0.00000000E+00  0.00000000E+00
  0.00000000E+00  0.00000000E+00  0.00000000E+00
  0.00000000E+00  0.00000000E+00  0.00000000E+00
  0.00000000E+00  0.00000000E+00  0.00000000E+00
  0.00000000E+00  0.00000000E+00  0.00000000E+00
  0.00000000E+00  0.00000000E+00  0.00000000E+00
  0.00000000E+00  0.00000000E+00  0.00000000E+00
  0.00000000E+00  0.00000000E+00  0.00000000E+00
  0.00000000E+00  0.00000000E+00  0.00000000E+00
  0.00000000E+00  0.00000000E+00  0.00000000E+00
  0.00000000E+00  0.00000000E+00  0.00000000E+00
  0.00000000E+00  0.00000000E+00  0.00000000E+00
  0.00000000E+00  0.00000000E+00  0.00000000E+00
  0.00000000E+00  0.00000000E+00  0.00000000E+00
  0.00000000E+00  0.00000000E+00  0.00000000E+00
  0.00000000E+00  0.00000000E+00  0.00000000E+00
  0.00000000E+00  0.00000000E+00  0.00000000E+00
  0.00000000E+00  0.00000000E+00  0.00000000E+00
  0.00000000E+00  0.00000000E+00  0.00000000E+00
  0.00000000E+00  0.00000000E+00  0.00000000E+00
  0.00000000E+00  0.00000000E+00  0.00000000E+00
  0.00000000E+00  0.00000000E+00  0.00000000E+00
  0.00000000E+00  0.00000000E+00  0.00000000E+00
  0.00000000E+00  0.00000000E+00  0.00000000E+00
  0.00000000E+00  0.00000000E+00  0.00000000E+00
  0.00000000E+00  0.00000000E+00  0.00000000E+00
  0.00000000E+00  0.00000000E+00  0.00000000E+00
  0.00000000E+00  0.00000000E+00  0.00000000E+00
  0.00000000E+00  0.00000000E+00  0.00000000E+00
  0.00000000E+00  0.00000000E+00  0.00000000E+00
  0.00000000E+00  0.00000000E+00  0.00000000E+00
  0.00000000E+00  0.00000000E+00  0.00000000E+00
  0.00000000E+00  0.00000000E+00  0.00000000E+00
  0.00000000E+00  0.00000000E+00  0.00000000E+00
  0.00000000E+00  0.00000000E+00  0.00000000E+00
  0.00000000E+00  0.00000000E+00  0.00000000E+00
  0.00000000E+00  0.00000000E+00  0.00000000E+00
  0.00000000E+00  0.00000000E+00  0.00000000E+00
  0.00000000E+00  0.00000000E+00  0.00000000E+00
  0.00000000E+00  0.00000000E+00  0.00000000E+00
  0.00000000E+00  0.00000000E+00  0.00000000E+00
  0.00000000E+00  0.00000000E+00  0.00000000E+00
  0.00000000E+00  0.00000000E+00  0.00000000E+00
  0.00000000E+00  0.00000000E+00  0.00000000E+00
  0.00000000E+00  0.00000000E+00  0.00000000E+00
  0.00000000E+00  0.00000000E+00  0.00000000E+00
  0.00000000E+00  0.00000000E+00  0.00000000E+00
  0.00000000E+00  0.00000000E+00  0.00000000E+00
  0.00000000E+00  0.00000000E+00  0.00000000E+00
  0.00000000E+00  0.00000000E+00  0.00000000E+00
  0.00000000E+00  0.00000000E+00  0.00000000E+00
  0.00000000E+00  0.00000000E+00  0.00000000E+00
  0.00000000E+00  0.00000000E+00  0.00000000E+00
  0.00000000E+00  0.00000000E+00  0.00000000E+00
  0.00000000E+00  0.00000000E+00  0.00000000E+00
  0.00000000E+00  0.00000000E+00  0.00000000E+00
  0.00000000E+00  0.00000000E+00  0.00000000E+00
  0.00000000E+00  0.00000000E+00  0.00000000E+00
  0.00000000E+00  0.00000000E+00  0.00000000E+00
  0.00000000E+00  0.00000000E+00  0.00000000E+00
  0.00000000E+00  0.00000000E+00  0.00000000E+00
  0.00000000E+00  0.00000000E+00  0.00000000E+00
  0.00000000E+00  0.00000000E+00  0.00000000E+00
  0.00000000E+00  0.00000000E+00  0.00000000E+00
  0.00000000E+00  0.00000000E+00  0.00000000E+00
  0.00000000E+00  0.00000000E+00  0.00000000E+00
  0.00000000E+00  0.00000000E+00  0.00000000E+00