ALGO = Normal
EDIFF = 1e-05
ENCUT = 400
IBRION = 0
ICHARG = 1
ISIF = 2
ISMEAR = 0
ISPIN = 1
ISYM = 0
KBLOCK = 100
LCHARG = False
LPLANE = True
LREAL = True
LSCALU = False
LWAVE = False
MAXMIX = 20
NBLOCK = 1
NCORE = 12
NELECT = 1216 # background charge compensation for Li_vacancy, charge-neutral for bulk and As_cluster 
NELM = 500
NELMIN = 4
NSIM = 4
NSW = 1000
NWRITE = 1
POTIM = 0.5
PREC = Normal
SIGMA = 0.05
SMASS = 0
TEBEG = 100 # Temperature ramping starts from 100K, then change to 1200K for equilibration 
TEEND = 1200
