Li95 Ta33 O128                          
   1.00000000000000     
    11.3805060000000005    0.0067560000000000   -3.8448400000000000
     1.3117719999999999   11.3046539999999993    3.8448410000000002
    -0.0280210000000000    0.0314430000000000   18.5912410000000001
   Li   Ta   O 
    95    33   128
Direct
  0.2837364503822641  0.0960940634996348  0.4427187734273872
  0.2836598557337666  0.0976156535771224  0.9426702256450170
  0.2835301748055130  0.5983376851017042  0.9426001139845752
  0.7837623937085851  0.0962914360590119  0.4420737027029205
  0.7839491260665525  0.0973495400108817  0.9427823302029239
  0.7874881270970420  0.5991150204384255  0.4429162395046546
  0.7841750676021277  0.5994148779278845  0.9425687718230478
  0.0974468977124374  0.2796994117589051  0.3055678827135822
  0.0976907265358946  0.2829232540594404  0.8082167851056639
  0.0920413925568653  0.7917914893499329  0.3024211180119707
  0.0984761033476858  0.7838727877385168  0.8082380560303051
  0.5960754186392450  0.2830181600473693  0.3063799994872838
  0.6009081667337881  0.2807244844053898  0.8103730270463814
  0.5961779361268000  0.7871609758257208  0.3036121831320315
  0.5983949132873079  0.7853055977733376  0.8080807621513486
  0.2153981461605738  0.4023927174467019  0.0553969329834061
  0.2159364525615359  0.3890649012256659  0.5654263796912460
  0.2155052099397423  0.9031845187890610  0.0554158926542314
  0.2163276379985604  0.9058292616141372  0.5593259159362418
  0.7129585960820251  0.4008140510007792  0.0536809650883114
  0.7214711341475208  0.3976896707490098  0.5602244294458600
  0.7155352475039720  0.9033531891407023  0.0557727592902850
  0.7171431866401008  0.9037765747971633  0.5583551858868248
  0.4019638530376497  0.2161217132309119  0.1912959108118102
  0.4008508395929766  0.2125785011260390  0.6953088615285665
  0.4012418901523560  0.7184714599668069  0.1906419220808786
  0.4019276216629279  0.7173028344221990  0.6941622128997409
  0.9006098805752600  0.2149869440153722  0.1908080990934096
  0.9051785162098724  0.2137576392228411  0.6952640213370884
  0.8996317996373691  0.7194447303269911  0.1899329150626485
  0.9044557173920751  0.7164591292161049  0.6940796629412773
  0.1792767144157423  0.2184701265110718  0.1863237131483757
  0.1753618135834287  0.2151967829437424  0.6881681626806539
  0.1789600286332984  0.7236686422152800  0.1850002769083972
  0.1752322148343950  0.7229435844666625  0.6887737349189180
  0.6754954716354149  0.2173032855487165  0.1866595227214205
  0.6865168021055226  0.2133447086664049  0.6901148260865284
  0.6776195639583094  0.7215882752044465  0.1867291797940211
  0.6817899479782454  0.7222555017328318  0.6883777499080210
  0.2192285388566546  0.1777584149640319  0.0616086855987419
  0.2188046099582905  0.1714798644017108  0.5628311033499571
  0.2199845656069215  0.6785028827512605  0.0620814741497497
  0.2173167497563000  0.6870894496886208  0.5666122812520982
  0.7184961056761594  0.1769101546350669  0.0618835272269607
  0.7234847032549467  0.1717891191401435  0.5622128929718002
  0.7185719541493185  0.6802183708633933  0.0615442392867749
  0.7236942140368754  0.6829010207143398  0.5645873387738902
  0.3232070588056217  0.2776129825376472  0.3119513287415927
  0.3203185397667667  0.2783599031229116  0.8133136551313100
  0.3350943640232487  0.7980400452906622  0.3120258545756869
  0.3214453795690773  0.7811777020085913  0.8129966283068200
  0.8194878385145543  0.2776662505801895  0.3124427852961205
  0.8232937815128452  0.2799720824248482  0.8129056588893206
  0.8199985814160726  0.7842091255835939  0.3120052940884719
  0.8239248447794978  0.7822012163335401  0.8130968390737650
  0.2812639607580110  0.3152005126043704  0.4382296703954509
  0.2799127659065661  0.3215517641343766  0.9372304827022617
  0.2769668765707607  0.8481229329044027  0.4384952265864612
  0.2805778571770432  0.8223816760640830  0.9375194965759519
  0.7808228265973298  0.3178376419229707  0.4370900142766061
  0.7800881597020606  0.3215634818325128  0.9370763758457272
  0.7820647057178149  0.8277031829352310  0.4374257008084896
  0.7806404330462371  0.8233461975070497  0.9372665631678814
  0.0288814197772780  0.3409766821979758  0.4359652168074533
  0.0285985624781517  0.3469422202398036  0.9311364518260632
  0.0273259868491422  0.8508541382365422  0.4312965286090957
  0.0295235979901847  0.8474636970022971  0.9322739353257603
  0.5306248243182594  0.3428130775368672  0.4296220989869397
  0.5280874687729806  0.3464353856711071  0.9327879804162862
  0.5302485889993633  0.8514684278239315  0.4333806856703930
  0.5289479194594904  0.8483760594873146  0.9315679943708801
  0.3460817316705729  0.0323431417910882  0.3155301377172890
  0.3478178326048251  0.0279681440606083  0.8190209246195437
  0.3487244765440636  0.5273237109487994  0.3135238766616908
  0.3464617192849744  0.5297890369865712  0.8205456501517503
  0.8461063672953486  0.0296560379717832  0.3165326833260451
  0.8487982381292269  0.0272800973360887  0.8192373163122539
  0.8445583530378400  0.5302166942527364  0.3161279409853393
  0.8485912964171050  0.5284683981063125  0.8185289587584563
  0.4700817281489762  0.1531776315637998  0.0663693528368299
  0.4710994707175828  0.1466007914873018  0.5686874892896583
  0.4698829880190090  0.6537135041255411  0.0666398401628641
  0.4835512068856005  0.6543107220815543  0.5747163990243820
  0.9699675343614658  0.1516542096333140  0.0670162029032255
  0.9723589977277811  0.1510337298083115  0.5683709459237534
  0.9701834533519644  0.6550869127272065  0.0648246662154790
  0.9717487998938950  0.6537820717163214  0.5696686712510868
  0.1522109740637276  0.4712647680379618  0.1784129995404271
  0.1514967006533752  0.4712942752195914  0.6826913622754560
  0.1517339969285416  0.9725858579583289  0.1801377478798543
  0.1532487321803302  0.9706219988424394  0.6834471455771549
  0.6496126151159132  0.4716062941677279  0.1802400029790689
  0.6550479728379344  0.4693637682111103  0.6854570739258250
  0.6511721515545901  0.9720437237500050  0.1806044850724575
  0.6544818960032615  0.9703482588341856  0.6837515192930326
  0.2795993933084659  0.5976772534430950  0.4424907401855833
  0.3883964477238422  0.4683451837228105  0.1865983326479608
  0.3902049672962775  0.4681118365001495  0.6924144017863014
  0.3888039773134651  0.9703869505038938  0.1857036516246851
  0.3900783543958113  0.9687783814344968  0.6889025930287715
  0.8844050529122995  0.4678943592027238  0.1830864432126518
  0.8891509432753892  0.4696204905214003  0.6879136339768834
  0.8882443870468109  0.9690392736640874  0.1866369205031901
  0.8912618396203555  0.9685791154156220  0.6884646759453972
  0.4683893112492896  0.3896921114346199  0.0617919240233178
  0.4765452924259606  0.3804641328719853  0.5670427228988473
  0.4692529778320917  0.8894678096405073  0.0617112200953684
  0.4701493044289862  0.8896535786221733  0.5642313928644427
  0.9693108601339446  0.3886161628306013  0.0610895076710705
  0.9685594353222271  0.3882084542696091  0.5640067910631572
  0.9691521647369470  0.8895252160266409  0.0618951010260389
  0.9689640926186058  0.8908909765227833  0.5626239736094689
  0.1088579824134683  0.0328142127640092  0.3102361530972004
  0.1112864171676264  0.0304648180631588  0.8132103850611614
  0.1000135703406428  0.5233096323370034  0.3071783421383572
  0.1104208954636263  0.5307196192205410  0.8126359524063957
  0.6090164755160927  0.0306915347501331  0.3118523740214059
  0.6110820681364686  0.0313817173936357  0.8125824588909509
  0.6093285746305526  0.5318855961408246  0.3099708630943567
  0.6116505629217031  0.5330102734463864  0.8130795268888420
  0.0307404070667232  0.1097714386185160  0.4368033661602055
  0.0308059674526717  0.1105639904550983  0.9375543905268557
  0.0267788839431162  0.6071153720366596  0.4385984985410687
  0.0310710351992753  0.6108175976691044  0.9372356124218086
  0.5307281760782701  0.1089088686816950  0.4374409593198294
  0.5305955791699120  0.1106342190055614  0.9373773014693967
  0.5422316552828406  0.6065742688109523  0.4390695434980643
  0.5307548350760740  0.6112226832505030  0.9377236571193137
  0.3541370232925303  0.0212475740696334  0.0678274222853901
  0.3553256643361777  0.0208026927206149  0.5692209176560965
  0.3541741906907774  0.5219918760591966  0.0686848757396703
  0.3482418058504138  0.5252053723865728  0.5619151816597210
  0.8545575280597433  0.0203402704581421  0.0684887278673330
  0.8554824300128487  0.0218164904768159  0.5686104622066779
  0.8518434778041382  0.5221117609528960  0.0675437417002414
  0.8555532564614410  0.5205773184288134  0.5682735944232107
  0.0188843341187521  0.3578174472683173  0.1807249917809699
  0.0210271058375611  0.3539762500564478  0.6811339346929302
  0.0215054089492099  0.8537335803534063  0.1816336650979551
  0.0221922775905909  0.8550055728835702  0.6814573763262501
  0.5202160533574016  0.3561513139186019  0.1812827028464099
  0.5181328381008186  0.3570997933945961  0.6804711167749034
  0.5207623530376679  0.8552383891801369  0.1809502305554958
  0.5218947016819229  0.8544578396011104  0.6824089653472853
  0.1520176033359135  0.4777709193037296  0.4337493463775246
  0.1443393421954156  0.4784492601208967  0.9312093065585927
  0.1462236742238758  0.9789823930806705  0.4305261520993184
  0.1452342353530227  0.9787634084339416  0.9316694496178926
  0.6432139739430340  0.4790760442299700  0.4327810305115136
  0.6446369928769471  0.4785158953836302  0.9307693886013837
  0.6440762712170667  0.9780025877471772  0.4312367983073671
  0.6452543039903702  0.9794334819550912  0.9311721831241044
  0.4776126006275021  0.1443758849093939  0.3184271522192930
  0.4789964863366620  0.1457508730366612  0.8183320044961704
  0.4794640603641227  0.6446496335323246  0.3207903341916349
  0.4789660997950662  0.6439697067739445  0.8184956614912053
  0.9787959964823543  0.1454282311904009  0.3176138104366331
  0.9789461157992392  0.1446826446107892  0.8187289949720977
  0.9842541969828602  0.6431009199251676  0.3203375923892082
  0.9786481105569607  0.6446395206043150  0.8185754754975889
  0.2110829413084545  0.1523811576179028  0.3076677810158870
  0.2121647613080881  0.1510484078532457  0.8092183810160520
  0.2172088543886161  0.6446842339229804  0.3220344349486908
  0.2118263034351386  0.6507668819265291  0.8092754055109168
  0.7106123566773022  0.1505180305759666  0.3088538016850180
  0.7122830683552408  0.1517717034501729  0.8087588848399747
  0.7118435675202051  0.6509242618598989  0.3102058243969523
  0.7126013248960703  0.6515185437847180  0.8088078569422450
  0.1506982470417313  0.2120026763898082  0.4402579757857055
  0.1506511496702458  0.2122462143983910  0.9405422126055072
  0.1562437046207208  0.7162819826541593  0.4424797596905279
  0.1511553292296597  0.7117155674523232  0.9408633911911437
  0.6504068702662309  0.2111228598445436  0.4401792813783771
  0.6504436943167349  0.2126711687282850  0.9402774196279040
  0.6528941547937208  0.7132021413536762  0.4430310355508453
  0.6510226125097418  0.7121750770734110  0.9403426462141056
  0.2871519942038390  0.3491326153055141  0.1906462212900806
  0.2875120547736145  0.3497415901192582  0.6885875421221357
  0.2883978375740455  0.8486841194342460  0.1916929966656369
  0.2881417993565236  0.8489660439401234  0.6911332110971244
  0.7857726938994105  0.3485286198719635  0.1909687147984442
  0.7875629887303006  0.3490158687023381  0.6899514350265932
  0.7879538768574221  0.8481117176754580  0.1912632898326834
  0.7890744763598647  0.8490107126443647  0.6909029766357762
  0.3484507188700192  0.2884000733881393  0.0591465679328209
  0.3507244783343992  0.2871659559347677  0.5594057345792862
  0.3491885334831082  0.7877287673814024  0.0594120163288849
  0.3498426428522450  0.7880333456548385  0.5600705375199979
  0.8483571907171807  0.2882001731168842  0.0593258465742252
  0.8485054045133111  0.2881194846001804  0.5576495418093756
  0.8492957687280693  0.7874127485320628  0.0594344839945649
  0.8493333502250096  0.7889825838085187  0.5591544515951057
  0.0896170828341951  0.2843420486997843  0.0658763940792824
  0.0885534197788900  0.2849838083952037  0.5648828959892001
  0.0900863837529471  0.7848026612690688  0.0659143372732771
  0.0895622260737738  0.7863449592943184  0.5659535977801013
  0.5889509783028828  0.2851220326636934  0.0656395191894177
  0.5929769803385057  0.2813438982848240  0.5658683221507630
  0.5899704077973880  0.7848670410007870  0.0657811264226922
  0.5899407545499855  0.7843741404735596  0.5664097640423336
  0.2848308832535764  0.0902075516657206  0.1834555392467934
  0.2847829857282278  0.0895385631630319  0.6842395972065702
  0.2858016748844108  0.5892205087670632  0.1860268694300018
  0.2838179269950842  0.5902181452188415  0.6828972996500511
  0.7845082265275494  0.0893057738021099  0.1840251688773051
  0.7864504662371772  0.0894117725638779  0.6841656677628905
  0.7872025632747466  0.5894515833574587  0.1850559845024264
  0.7841619959924273  0.5897944626453722  0.6837239822584635
  0.4107951592741657  0.2145634763758792  0.4340210475055528
  0.4099539421664176  0.2148460585157110  0.9341093507442082
  0.4066835577250387  0.7105617039536014  0.4346609097673024
  0.4102043363254637  0.7151273730518994  0.9340432789490052
  0.9105366348387207  0.2152073572807680  0.4330217637353257
  0.9100366550916235  0.2148007617235024  0.9341406079138892
  0.9111329913993487  0.7165781057477147  0.4339097742746745
  0.9103484364201364  0.7145787991495212  0.9343337465326300
  0.2150152490676476  0.4103184613806619  0.3158251329784747
  0.2143495027610669  0.4104417350269713  0.8152428657414532
  0.2152583868792135  0.9115007085152769  0.3159175043729334
  0.2152281554584832  0.9100378183568409  0.8161456986634974
  0.7151723267088457  0.4107331176855666  0.3167109009440452
  0.7123838313578617  0.4104784645104402  0.8149817716894034
  0.7138103515615626  0.9099597989634276  0.3159167611238587
  0.7152024043539527  0.9108514109447725  0.8156494461136532
  0.4741481889548282  0.4173440696455657  0.3064857799902612
  0.4698214569700170  0.4155421151376615  0.8066818812508316
  0.4720958804431419  0.9143464930095462  0.3063330079548265
  0.4746084019856625  0.9161704614700099  0.8068720195193961
  0.9751914679036915  0.4168800327361168  0.3068613230951485
  0.9730906064886753  0.4158047474240405  0.8060046249417425
  0.9745691763998892  0.9156433945092388  0.3058963974440161
  0.9747305151434063  0.9154434617730587  0.8067801286932763
  0.4097166408034170  0.4764360782291064  0.4446820314948212
  0.4157047252449857  0.4744668416509654  0.9436093627162379
  0.4146147762185279  0.9725690686690740  0.4441887587238114
  0.4162429357081407  0.9739878477211690  0.9433298219287920
  0.9165272859919611  0.4771306802972219  0.4429696873384401
  0.9152329252263343  0.4737070708008702  0.9434412562825543
  0.9160284155684906  0.9743104655554831  0.4431054090006654
  0.9160077808588483  0.9735733617815825  0.9435790324789082
  0.0247545318131159  0.0842698311786023  0.1923553344674076
  0.0268289960098969  0.0840709099819676  0.6938893931576473
  0.0288090008579402  0.5860536660904856  0.1926465914281863
  0.0252611035575754  0.5833591626796206  0.6934023961255491
  0.5250106426488443  0.0837204730719918  0.1933712976978654
  0.5257409715666341  0.0842119437778521  0.6935663841305981
  0.5266056057611337  0.5848583963231562  0.1935742605620590
  0.5238756486528331  0.5810747749486112  0.6933396933994516
  0.0835356632384219  0.0256326665860414  0.0563621650293769
  0.0845608880080633  0.0267839266649261  0.5557673649617811
  0.0826114290466933  0.5254329417314878  0.0562079063753558
  0.0854203109913314  0.5254185278209462  0.5560896054615370
  0.5837034211187060  0.0260459213668369  0.0561734927526203
  0.5842097700585569  0.0251192041141977  0.5564375566861699
  0.5837669256463585  0.5259309239144727  0.0561968538009907
  0.5809698288175085  0.5233254076637905  0.5565082896901927
 
  0.00000000E+00  0.00000000E+00  0.00000000E+00
  0.00000000E+00  0.00000000E+00  0.00000000E+00
  0.00000000E+00  0.00000000E+00  0.00000000E+00
  0.00000000E+00  0.00000000E+00  0.00000000E+00
  0.00000000E+00  0.00000000E+00  0.00000000E+00
  0.00000000E+00  0.00000000E+00  0.00000000E+00
  0.00000000E+00  0.00000000E+00  0.00000000E+00
  0.00000000E+00  0.00000000E+00  0.00000000E+00
  0.00000000E+00  0.00000000E+00  0.00000000E+00
  0.00000000E+00  0.00000000E+00  0.00000000E+00
  0.00000000E+00  0.00000000E+00  0.00000000E+00
  0.00000000E+00  0.00000000E+00  0.00000000E+00
  0.00000000E+00  0.00000000E+00  0.00000000E+00
  0.00000000E+00  0.00000000E+00  0.00000000E+00
  0.00000000E+00  0.00000000E+00  0.00000000E+00
  0.00000000E+00  0.00000000E+00  0.00000000E+00
  0.00000000E+00  0.00000000E+00  0.00000000E+00
  0.00000000E+00  0.00000000E+00  0.00000000E+00
  0.00000000E+00  0.00000000E+00  0.00000000E+00
  0.00000000E+00  0.00000000E+00  0.00000000E+00
  0.00000000E+00  0.00000000E+00  0.00000000E+00
  0.00000000E+00  0.00000000E+00  0.00000000E+00
  0.00000000E+00  0.00000000E+00  0.00000000E+00
  0.00000000E+00  0.00000000E+00  0.00000000E+00
  0.00000000E+00  0.00000000E+00  0.00000000E+00
  0.00000000E+00  0.00000000E+00  0.00000000E+00
  0.00000000E+00  0.00000000E+00  0.00000000E+00
  0.00000000E+00  0.00000000E+00  0.00000000E+00
  0.00000000E+00  0.00000000E+00  0.00000000E+00
  0.00000000E+00  0.00000000E+00  0.00000000E+00
  0.00000000E+00  0.00000000E+00  0.00000000E+00
  0.00000000E+00  0.00000000E+00  0.00000000E+00
  0.00000000E+00  0.00000000E+00  0.00000000E+00
  0.00000000E+00  0.00000000E+00  0.00000000E+00
  0.00000000E+00  0.00000000E+00  0.00000000E+00
  0.00000000E+00  0.00000000E+00  0.00000000E+00
  0.00000000E+00  0.00000000E+00  0.00000000E+00
  0.00000000E+00  0.00000000E+00  0.00000000E+00
  0.00000000E+00  0.00000000E+00  0.00000000E+00
  0.00000000E+00  0.00000000E+00  0.00000000E+00
  0.00000000E+00  0.00000000E+00  0.00000000E+00
  0.00000000E+00  0.00000000E+00  0.00000000E+00
  0.00000000E+00  0.00000000E+00  0.00000000E+00
  0.00000000E+00  0.00000000E+00  0.00000000E+00
  0.00000000E+00  0.00000000E+00  0.00000000E+00
  0.00000000E+00  0.00000000E+00  0.00000000E+00
  0.00000000E+00  0.00000000E+00  0.00000000E+00
  0.00000000E+00  0.00000000E+00  0.00000000E+00
  0.00000000E+00  0.00000000E+00  0.00000000E+00
  0.00000000E+00  0.00000000E+00  0.00000000E+00
  0.00000000E+00  0.00000000E+00  0.00000000E+00
  0.00000000E+00  0.00000000E+00  0.00000000E+00
  0.00000000E+00  0.00000000E+00  0.00000000E+00
  0.00000000E+00  0.00000000E+00  0.00000000E+00
  0.00000000E+00  0.00000000E+00  0.00000000E+00
  0.00000000E+00  0.00000000E+00  0.00000000E+00
  0.00000000E+00  0.00000000E+00  0.00000000E+00
  0.00000000E+00  0.00000000E+00  0.00000000E+00
  0.00000000E+00  0.00000000E+00  0.00000000E+00
  0.00000000E+00  0.00000000E+00  0.00000000E+00
  0.00000000E+00  0.00000000E+00  0.00000000E+00
  0.00000000E+00  0.00000000E+00  0.00000000E+00
  0.00000000E+00  0.00000000E+00  0.00000000E+00
  0.00000000E+00  0.00000000E+00  0.00000000E+00
  0.00000000E+00  0.00000000E+00  0.00000000E+00
  0.00000000E+00  0.00000000E+00  0.00000000E+00
  0.00000000E+00  0.00000000E+00  0.00000000E+00
  0.00000000E+00  0.00000000E+00  0.00000000E+00
  0.00000000E+00  0.00000000E+00  0.00000000E+00
  0.00000000E+00  0.00000000E+00  0.00000000E+00
  0.00000000E+00  0.00000000E+00  0.00000000E+00
  0.00000000E+00  0.00000000E+00  0.00000000E+00
  0.00000000E+00  0.00000000E+00  0.00000000E+00
  0.00000000E+00  0.00000000E+00  0.00000000E+00
  0.00000000E+00  0.00000000E+00  0.00000000E+00
  0.00000000E+00  0.00000000E+00  0.00000000E+00
  0.00000000E+00  0.00000000E+00  0.00000000E+00
  0.00000000E+00  0.00000000E+00  0.00000000E+00
  0.00000000E+00  0.00000000E+00  0.00000000E+00
  0.00000000E+00  0.00000000E+00  0.00000000E+00
  0.00000000E+00  0.00000000E+00  0.00000000E+00
  0.00000000E+00  0.00000000E+00  0.00000000E+00
  0.00000000E+00  0.00000000E+00  0.00000000E+00
  0.00000000E+00  0.00000000E+00  0.00000000E+00
  0.00000000E+00  0.00000000E+00  0.00000000E+00
  0.00000000E+00  0.00000000E+00  0.00000000E+00
  0.00000000E+00  0.00000000E+00  0.00000000E+00
  0.00000000E+00  0.00000000E+00  0.00000000E+00
  0.00000000E+00  0.00000000E+00  0.00000000E+00
  0.00000000E+00  0.00000000E+00  0.00000000E+00
  0.00000000E+00  0.00000000E+00  0.00000000E+00
  0.00000000E+00  0.00000000E+00  0.00000000E+00
  0.00000000E+00  0.00000000E+00  0.00000000E+00
  0.00000000E+00  0.00000000E+00  0.00000000E+00
  0.00000000E+00  0.00000000E+00  0.00000000E+00
  0.00000000E+00  0.00000000E+00  0.00000000E+00
  0.00000000E+00  0.00000000E+00  0.00000000E+00
  0.00000000E+00  0.00000000E+00  0.00000000E+00
  0.00000000E+00  0.00000000E+00  0.00000000E+00
  0.00000000E+00  0.00000000E+00  0.00000000E+00
  0.00000000E+00  0.00000000E+00  0.00000000E+00
  0.00000000E+00  0.00000000E+00  0.00000000E+00
  0.00000000E+00  0.00000000E+00  0.00000000E+00
  0.00000000E+00  0.00000000E+00  0.00000000E+00
  0.00000000E+00  0.00000000E+00  0.00000000E+00
  0.00000000E+00  0.00000000E+00  0.00000000E+00
  0.00000000E+00  0.00000000E+00  0.00000000E+00
  0.00000000E+00  0.00000000E+00  0.00000000E+00
  0.00000000E+00  0.00000000E+00  0.00000000E+00
  0.00000000E+00  0.00000000E+00  0.00000000E+00
  0.00000000E+00  0.00000000E+00  0.00000000E+00
  0.00000000E+00  0.00000000E+00  0.00000000E+00
  0.00000000E+00  0.00000000E+00  0.00000000E+00
  0.00000000E+00  0.00000000E+00  0.00000000E+00
  0.00000000E+00  0.00000000E+00  0.00000000E+00
  0.00000000E+00  0.00000000E+00  0.00000000E+00
  0.00000000E+00  0.00000000E+00  0.00000000E+00
  0.00000000E+00  0.00000000E+00  0.00000000E+00
  0.00000000E+00  0.00000000E+00  0.00000000E+00
  0.00000000E+00  0.00000000E+00  0.00000000E+00
  0.00000000E+00  0.00000000E+00  0.00000000E+00
  0.00000000E+00  0.00000000E+00  0.00000000E+00
  0.00000000E+00  0.00000000E+00  0.00000000E+00
  0.00000000E+00  0.00000000E+00  0.00000000E+00
  0.00000000E+00  0.00000000E+00  0.00000000E+00
  0.00000000E+00  0.00000000E+00  0.00000000E+00
  0.00000000E+00  0.00000000E+00  0.00000000E+00
  0.00000000E+00  0.00000000E+00  0.00000000E+00
  0.00000000E+00  0.00000000E+00  0.00000000E+00
  0.00000000E+00  0.00000000E+00  0.00000000E+00
  0.00000000E+00  0.00000000E+00  0.00000000E+00
  0.00000000E+00  0.00000000E+00  0.00000000E+00
  0.00000000E+00  0.00000000E+00  0.00000000E+00
  0.00000000E+00  0.00000000E+00  0.00000000E+00
  0.00000000E+00  0.00000000E+00  0.00000000E+00
  0.00000000E+00  0.00000000E+00  0.00000000E+00
  0.00000000E+00  0.00000000E+00  0.00000000E+00
  0.00000000E+00  0.00000000E+00  0.00000000E+00
  0.00000000E+00  0.00000000E+00  0.00000000E+00
  0.00000000E+00  0.00000000E+00  0.00000000E+00
  0.00000000E+00  0.00000000E+00  0.00000000E+00
  0.00000000E+00  0.00000000E+00  0.00000000E+00
  0.00000000E+00  0.00000000E+00  0.00000000E+00
  0.00000000E+00  0.00000000E+00  0.00000000E+00
  0.00000000E+00  0.00000000E+00  0.00000000E+00
  0.00000000E+00  0.00000000E+00  0.00000000E+00
  0.00000000E+00  0.00000000E+00  0.00000000E+00
  0.00000000E+00  0.00000000E+00  0.00000000E+00
  0.00000000E+00  0.00000000E+00  0.00000000E+00
  0.00000000E+00  0.00000000E+00  0.00000000E+00
  0.00000000E+00  0.00000000E+00  0.00000000E+00
  0.00000000E+00  0.00000000E+00  0.00000000E+00
  0.00000000E+00  0.00000000E+00  0.00000000E+00
  0.00000000E+00  0.00000000E+00  0.00000000E+00
  0.00000000E+00  0.00000000E+00  0.00000000E+00
  0.00000000E+00  0.00000000E+00  0.00000000E+00
  0.00000000E+00  0.00000000E+00  0.00000000E+00
  0.00000000E+00  0.00000000E+00  0.00000000E+00
  0.00000000E+00  0.00000000E+00  0.00000000E+00
  0.00000000E+00  0.00000000E+00  0.00000000E+00
  0.00000000E+00  0.00000000E+00  0.00000000E+00
  0.00000000E+00  0.00000000E+00  0.00000000E+00
  0.00000000E+00  0.00000000E+00  0.00000000E+00
  0.00000000E+00  0.00000000E+00  0.00000000E+00
  0.00000000E+00  0.00000000E+00  0.00000000E+00
  0.00000000E+00  0.00000000E+00  0.00000000E+00
  0.00000000E+00  0.00000000E+00  0.00000000E+00
  0.00000000E+00  0.00000000E+00  0.00000000E+00
  0.00000000E+00  0.00000000E+00  0.00000000E+00
  0.00000000E+00  0.00000000E+00  0.00000000E+00
  0.00000000E+00  0.00000000E+00  0.00000000E+00
  0.00000000E+00  0.00000000E+00  0.00000000E+00
  0.00000000E+00  0.00000000E+00  0.00000000E+00
  0.00000000E+00  0.00000000E+00  0.00000000E+00
  0.00000000E+00  0.00000000E+00  0.00000000E+00
  0.00000000E+00  0.00000000E+00  0.00000000E+00
  0.00000000E+00  0.00000000E+00  0.00000000E+00
  0.00000000E+00  0.00000000E+00  0.00000000E+00
  0.00000000E+00  0.00000000E+00  0.00000000E+00
  0.00000000E+00  0.00000000E+00  0.00000000E+00
  0.00000000E+00  0.00000000E+00  0.00000000E+00
  0.00000000E+00  0.00000000E+00  0.00000000E+00
  0.00000000E+00  0.00000000E+00  0.00000000E+00
  0.00000000E+00  0.00000000E+00  0.00000000E+00
  0.00000000E+00  0.00000000E+00  0.00000000E+00
  0.00000000E+00  0.00000000E+00  0.00000000E+00
  0.00000000E+00  0.00000000E+00  0.00000000E+00
  0.00000000E+00  0.00000000E+00  0.00000000E+00
  0.00000000E+00  0.00000000E+00  0.00000000E+00
  0.00000000E+00  0.00000000E+00  0.00000000E+00
  0.00000000E+00  0.00000000E+00  0.00000000E+00
  0.00000000E+00  0.00000000E+00  0.00000000E+00
  0.00000000E+00  0.00000000E+00  0.00000000E+00
  0.00000000E+00  0.00000000E+00  0.00000000E+00
  0.00000000E+00  0.00000000E+00  0.00000000E+00
  0.00000000E+00  0.00000000E+00  0.00000000E+00
  0.00000000E+00  0.00000000E+00  0.00000000E+00
  0.00000000E+00  0.00000000E+00  0.00000000E+00
  0.00000000E+00  0.00000000E+00  0.00000000E+00
  0.00000000E+00  0.00000000E+00  0.00000000E+00
  0.00000000E+00  0.00000000E+00  0.00000000E+00
  0.00000000E+00  0.00000000E+00  0.00000000E+00
  0.00000000E+00  0.00000000E+00  0.00000000E+00
  0.00000000E+00  0.00000000E+00  0.00000000E+00
  0.00000000E+00  0.00000000E+00  0.00000000E+00
  0.00000000E+00  0.00000000E+00  0.00000000E+00
  0.00000000E+00  0.00000000E+00  0.00000000E+00
  0.00000000E+00  0.00000000E+00  0.00000000E+00
  0.00000000E+00  0.00000000E+00  0.00000000E+00
  0.00000000E+00  0.00000000E+00  0.00000000E+00
  0.00000000E+00  0.00000000E+00  0.00000000E+00
  0.00000000E+00  0.00000000E+00  0.00000000E+00
  0.00000000E+00  0.00000000E+00  0.00000000E+00
  0.00000000E+00  0.00000000E+00  0.00000000E+00
  0.00000000E+00  0.00000000E+00  0.00000000E+00
  0.00000000E+00  0.00000000E+00  0.00000000E+00
  0.00000000E+00  0.00000000E+00  0.00000000E+00
  0.00000000E+00  0.00000000E+00  0.00000000E+00
  0.00000000E+00  0.00000000E+00  0.00000000E+00
  0.00000000E+00  0.00000000E+00  0.00000000E+00
  0.00000000E+00  0.00000000E+00  0.00000000E+00
  0.00000000E+00  0.00000000E+00  0.00000000E+00
  0.00000000E+00  0.00000000E+00  0.00000000E+00
  0.00000000E+00  0.00000000E+00  0.00000000E+00
  0.00000000E+00  0.00000000E+00  0.00000000E+00
  0.00000000E+00  0.00000000E+00  0.00000000E+00
  0.00000000E+00  0.00000000E+00  0.00000000E+00
  0.00000000E+00  0.00000000E+00  0.00000000E+00
  0.00000000E+00  0.00000000E+00  0.00000000E+00
  0.00000000E+00  0.00000000E+00  0.00000000E+00
  0.00000000E+00  0.00000000E+00  0.00000000E+00
  0.00000000E+00  0.00000000E+00  0.00000000E+00
  0.00000000E+00  0.00000000E+00  0.00000000E+00
  0.00000000E+00  0.00000000E+00  0.00000000E+00
  0.00000000E+00  0.00000000E+00  0.00000000E+00
  0.00000000E+00  0.00000000E+00  0.00000000E+00
  0.00000000E+00  0.00000000E+00  0.00000000E+00
  0.00000000E+00  0.00000000E+00  0.00000000E+00
  0.00000000E+00  0.00000000E+00  0.00000000E+00
  0.00000000E+00  0.00000000E+00  0.00000000E+00
  0.00000000E+00  0.00000000E+00  0.00000000E+00
  0.00000000E+00  0.00000000E+00  0.00000000E+00
  0.00000000E+00  0.00000000E+00  0.00000000E+00
  0.00000000E+00  0.00000000E+00  0.00000000E+00
  0.00000000E+00  0.00000000E+00  0.00000000E+00
  0.00000000E+00  0.00000000E+00  0.00000000E+00
  0.00000000E+00  0.00000000E+00  0.00000000E+00
  0.00000000E+00  0.00000000E+00  0.00000000E+00
  0.00000000E+00  0.00000000E+00  0.00000000E+00
  0.00000000E+00  0.00000000E+00  0.00000000E+00
  0.00000000E+00  0.00000000E+00  0.00000000E+00
  0.00000000E+00  0.00000000E+00  0.00000000E+00
  0.00000000E+00  0.00000000E+00  0.00000000E+00
  0.00000000E+00  0.00000000E+00  0.00000000E+00
  0.00000000E+00  0.00000000E+00  0.00000000E+00
  0.00000000E+00  0.00000000E+00  0.00000000E+00
