Li95 Ta33 O128                          
   1.00000000000000     
    11.3805060000000005    0.0067560000000000   -3.8448400000000000
     1.3117719999999999   11.3046539999999993    3.8448410000000002
    -0.0280210000000000    0.0314430000000000   18.5912410000000001
   Li   Ta   O 
    95    33   128
Direct
  0.2835214744563359  0.0951460216660251  0.4429480786679747
  0.2837271327885773  0.0975033842097304  0.9427826046210939
  0.2839529669535281  0.5979866043218252  0.9424809193954857
  0.7837712044668947  0.0965903625040312  0.4430836416071742
  0.7839153187581331  0.0976159163454611  0.9430143731978617
  0.7883337032101991  0.5983786599399181  0.4426978526958578
  0.7848823148383275  0.5981974945959436  0.9431601399469187
  0.0970468169827328  0.2826883389491073  0.3064446344528733
  0.0963673440929114  0.2836019849406810  0.8074453482225792
  0.0950022515077791  0.7890629563720353  0.3030454105251579
  0.0972332623531358  0.7839027870448945  0.8075269700701782
  0.5977029893077415  0.2840106480064080  0.3070362797393145
  0.5982891652077456  0.2831828303585908  0.8080143015966215
  0.5979855891642245  0.7862162347772284  0.3040715528716404
  0.5985357286444284  0.7847050402358136  0.8076025811268011
  0.2157175329682985  0.4027920710901967  0.0561764219187140
  0.2118334634500556  0.3895443762231778  0.5650764618277648
  0.2161560461931060  0.9025817803944278  0.0568549212153613
  0.2165141936084680  0.9032844368223181  0.5587279198533039
  0.7160713371242196  0.4025855089350898  0.0565415053601868
  0.7144482668065351  0.3994362651864236  0.5591923426835166
  0.7162380305315708  0.9028988309017834  0.0563334794177521
  0.7168225510146797  0.9035186077586346  0.5573619334689894
  0.4026823241657951  0.2161070744484803  0.1921022291750845
  0.4021939440730691  0.2148739739002679  0.6940074596499315
  0.4021531503881377  0.7177886371637712  0.1912754462922592
  0.4027012336018174  0.7163597028305233  0.6939586125855541
  0.9016414577561420  0.2164995468324236  0.1918266133338520
  0.9007251008468558  0.2153949046027748  0.6942364774592207
  0.9041797375138358  0.7160028108660654  0.1922679187344372
  0.9032360797115047  0.7162888035849804  0.6936100327989081
  0.1782282116466760  0.2199724065694468  0.1867758031836217
  0.1754630344241122  0.2160917716240363  0.6883601638314758
  0.1783293756821251  0.7195244197327213  0.1879441032568181
  0.1779859607014131  0.7199895531426606  0.6887953750628171
  0.6775645868612443  0.2197460850909252  0.1872165732313178
  0.6743724684613142  0.2198235329239822  0.6865574506886460
  0.6800988847096363  0.7204768678995990  0.1867769617285830
  0.6798570108387736  0.7209021912443419  0.6878836651079041
  0.2193253101900936  0.1787198020522638  0.0619609782048798
  0.2174864836148913  0.1731843793374210  0.5629651970699427
  0.2199986128266360  0.6782063030851688  0.0626249832331638
  0.2203654659035621  0.6814043581151665  0.5660255158605239
  0.7191507132270445  0.1783183893818077  0.0621992445733852
  0.7165960747495674  0.1779397812900356  0.5623203533288859
  0.7204647597675731  0.6785918678353582  0.0622188531046604
  0.7220741820529142  0.6809694810904503  0.5634220862305526
  0.3214325274317034  0.2794307704279433  0.3121252216655961
  0.3202634266013149  0.2794894984342733  0.8127732309142175
  0.3266138295048151  0.7894443921431744  0.3103467744005073
  0.3216884552491450  0.7808838673367120  0.8129773643139657
  0.8223081712655826  0.2797870802599718  0.3123778573010085
  0.8214521831528288  0.2802721926223697  0.8125915188132069
  0.8248028621899621  0.7812629147956827  0.3132167783678099
  0.8235042817844729  0.7815480338272991  0.8127531814279436
  0.2782018482175985  0.3138297566924280  0.4377416154696760
  0.2799548056655112  0.3218390232797503  0.9371414051235547
  0.2778485521217746  0.8377606118880010  0.4382325509999987
  0.2805517796160046  0.8219669877258724  0.9375909053228071
  0.7800335738440936  0.3199133236499137  0.4374608052597040
  0.7802524332974556  0.3222951907651392  0.9374148641546682
  0.7843259896157875  0.8245505938693114  0.4373262733604264
  0.7813162896735548  0.8225631502712503  0.9373754808036452
  0.0279368310057464  0.3425226791629896  0.4341058324069351
  0.0284251105259870  0.3476517067437825  0.9318262861280431
  0.0284227229364618  0.8465045162396834  0.4317311751091211
  0.0288972322778633  0.8476134502937569  0.9321092720613535
  0.5272720694766946  0.3467001356057580  0.4314966197226795
  0.5288293093587839  0.3477908805352712  0.9319264386350525
  0.5300844901203376  0.8509159899152507  0.4325333000589993
  0.5294213203688116  0.8481093615876816  0.9319097221352877
  0.3466852015428472  0.0307869740250766  0.3163806355151522
  0.3475272699191549  0.0286465137121894  0.8185482054412248
  0.3490991987124303  0.5292022534495828  0.3124505572189946
  0.3469065850036515  0.5298850047750960  0.8182938378407201
  0.8469974027048224  0.0288791782630895  0.3170953397862348
  0.8475925756410660  0.0288536651487945  0.8183250166514284
  0.8480953070611648  0.5285373871268462  0.3178659478631474
  0.8481765779508805  0.5289140206901166  0.8186387712055492
  0.4709050043608016  0.1529337364102901  0.0671042378896516
  0.4713281254430370  0.1530650669514273  0.5682159884643880
  0.4714854948629821  0.6530704543924273  0.0672550729550068
  0.4778528777902196  0.6545357985989568  0.5715325194720080
  0.9704447203421722  0.1525854911044107  0.0673780299448765
  0.9708833431824146  0.1515235379783277  0.5682937523621234
  0.9725990316318871  0.6527531528224131  0.0680355121733669
  0.9718349732223643  0.6520965584015457  0.5683119192475061
  0.1525674162957813  0.4720349964280928  0.1816917154173154
  0.1514129162554880  0.4706890178467589  0.6827933631663896
  0.1521394498348272  0.9727576669336173  0.1805226842236465
  0.1528132287781503  0.9701274666653390  0.6831587768225589
  0.6531749189797154  0.4712671232667347  0.1805489037098837
  0.6517831014308868  0.4693888840348635  0.6830393688118477
  0.6521497328083399  0.9719774102905987  0.1812098482007158
  0.6530929584557512  0.9713159284302009  0.6828578916346402
  0.2761273284854440  0.5876552019069123  0.4386047150229189
  0.3900392731141551  0.4681666210345981  0.1867810710348721
  0.3897699899426996  0.4682724233733353  0.6898751257504188
  0.3894621295902283  0.9702823512505034  0.1864266042392160
  0.3899210873108245  0.9691670436929343  0.6883338691911902
  0.8902236364045635  0.4695179061173818  0.1867787151505311
  0.8881882563904924  0.4695023893324617  0.6879366938392835
  0.8887848291477383  0.9692741666094165  0.1868071988508149
  0.8892548803973597  0.9697205176315364  0.6875497600500822
  0.4691479890620798  0.3896930378309875  0.0616831019019202
  0.4642407040271621  0.3908077045235459  0.5620261069004258
  0.4696153701594881  0.8896905841835050  0.0619753617130598
  0.4700125862563524  0.8902343227289435  0.5635134940738595
  0.9694712061856237  0.3894063904897891  0.0621824301143761
  0.9662940486055120  0.3883698605061454  0.5635098264686675
  0.9694121793866586  0.8893426585435975  0.0621742947247839
  0.9698247808659133  0.8888313547402049  0.5632767641269112
  0.1095308900790215  0.0319789290258683  0.3111112339151632
  0.1101802501545137  0.0305564392560314  0.8128230844325230
  0.1087439616655530  0.5261577903095969  0.3133957633555298
  0.1100857828208746  0.5309671308484880  0.8125256174449120
  0.6102986812892013  0.0309879788024432  0.3121439281202996
  0.6108833670957736  0.0313692122000262  0.8126256065956454
  0.6112540049894832  0.5323416866863724  0.3101238474035526
  0.6112205602024687  0.5321139901256089  0.8126044834583652
  0.0302734544967507  0.1084547900931980  0.4374095213317446
  0.0306537369972233  0.1107580745415291  0.9375979224627713
  0.0322381848073334  0.6050823825009815  0.4394693733925266
  0.0313173380456178  0.6107675951320175  0.9377088155707582
  0.5303743181677660  0.1103617069739542  0.4371761394146034
  0.5308796228594517  0.1110406630082537  0.9374131376020713
  0.5388095117057361  0.6089770608837028  0.4367717198019037
  0.5314784581515255  0.6111045561465929  0.9375441628698837
  0.3551952898860407  0.0217280515604585  0.0680012518663204
  0.3552596895042655  0.0210723918463174  0.5691158459102112
  0.3554535646701922  0.5214914224116356  0.0682992476539823
  0.3478142262999810  0.5283883943887844  0.5670502669455857
  0.8547857372439935  0.0208853764440349  0.0683514591705787
  0.8554464513447684  0.0207140483855568  0.5686204222628035
  0.8554222894355306  0.5216709289510391  0.0686103026098763
  0.8541209682653772  0.5212587318416837  0.5687231331507263
  0.0214007160063403  0.3553318276724227  0.1812777132979235
  0.0189859741521445  0.3543092900904981  0.6817709171202395
  0.0213333397516564  0.8548502594463230  0.1812922205921410
  0.0213317226485685  0.8547682205908131  0.6817940471728363
  0.5216693750309602  0.3554631846514411  0.1810064898918426
  0.5193921120226861  0.3558250022486860  0.6807746045230161
  0.5214579897860858  0.8559369621534785  0.1808870388881587
  0.5221155125362600  0.8552961346743047  0.6820497061885575
  0.1472695621775983  0.4633129257269388  0.4392786049274378
  0.1446394461162228  0.4787777392080628  0.9313536739057966
  0.1459570645248505  0.9777562456535591  0.4308667257242504
  0.1447348488129023  0.9789141031936239  0.9315009289177141
  0.6451630736655076  0.4811615779449170  0.4315020986842271
  0.6453019939865428  0.4791257894018628  0.9311248790917546
  0.6443535211192213  0.9789396508776704  0.4312248073874372
  0.6452047495911728  0.9794825541872996  0.9313353361086811
  0.4783814615167543  0.1447231432735165  0.3183804187407659
  0.4788539238630634  0.1454105979810976  0.8185212309447749
  0.4816896664727324  0.6475502151621271  0.3179055908745951
  0.4795064012873240  0.6450755428860688  0.8185552224441466
  0.9784987892720807  0.1441769831521853  0.3183403047612501
  0.9783579286768145  0.1449487598807764  0.8186952868969399
  0.9822896643977046  0.6421918835715701  0.3204963525768463
  0.9787872900210957  0.6451169135490886  0.8187464449940194
  0.2112767947393337  0.1517523532853104  0.3083522074646012
  0.2114108294284520  0.1509716296770591  0.8092069124207981
  0.2182968782581725  0.6547689214962418  0.3105427219521104
  0.2117186406037916  0.6509429375103508  0.8094939893124860
  0.7117449088603607  0.1509606314616647  0.3091419286237098
  0.7117559680884469  0.1518254151514711  0.8089301554455162
  0.7138339882440903  0.6513208226643599  0.3091719317387174
  0.7125052655775050  0.6515261424246148  0.8089193117390678
  0.1507951732408230  0.2094155347200157  0.4411411222637582
  0.1507429137433363  0.2121928459399527  0.9406738346563372
  0.1565851366503210  0.7151730261947051  0.4427813541072965
  0.1514139595915935  0.7120876239115859  0.9409297251029827
  0.6500215535723157  0.2122050677607632  0.4403822153086026
  0.6508892543063283  0.2126467215788921  0.9405605955002017
  0.6521689325652531  0.7143804030806749  0.4413565251827976
  0.6516661873985115  0.7123151439759710  0.9406696234146636
  0.2886033971093553  0.3487912382053082  0.1907164629845752
  0.2871568060871610  0.3488501186961344  0.6903166499296063
  0.2881781030823021  0.8500041371247420  0.1899705201150184
  0.2885852850205595  0.8488406855083355  0.6913947587639981
  0.7888500489128489  0.3494654626385127  0.1910942890403575
  0.7857980109928349  0.3498053098782421  0.6902303650617796
  0.7885718621535673  0.8483710010732324  0.1909929798339576
  0.7881148124952446  0.8492435377078849  0.6907281843153967
  0.3490462043146891  0.2883597243609017  0.0588415514022671
  0.3461646407320487  0.2878052923999448  0.5592937061177707
  0.3495382324119021  0.7880553247135822  0.0592376765339750
  0.3499407751511683  0.7885813634284489  0.5602069480057921
  0.8489751817121061  0.2883379415843095  0.0592324140627980
  0.8457931053548862  0.2881574373988869  0.5586505777408703
  0.8494259954908188  0.7877683510164459  0.0592133103619972
  0.8492607693836760  0.7880155680221534  0.5592828480288645
  0.0899223967540763  0.2851477514660132  0.0656792627545144
  0.0863038227378965  0.2822767195004232  0.5672351736155008
  0.0902982616154517  0.7849882827539716  0.0659993239564614
  0.0907894245333480  0.7845254994361568  0.5670179328305522
  0.5899964424756092  0.2852763631996709  0.0656427190911799
  0.5853988224260860  0.2870525120412992  0.5638883452874381
  0.5903665925592776  0.7853814409686777  0.0656141480140349
  0.5896599860605605  0.7850957694294891  0.5658394394740469
  0.2851958677701347  0.0905661811914982  0.1835176140614934
  0.2847468151351791  0.0893705265229556  0.6844671918476379
  0.2870479068159426  0.5893888172157773  0.1847289372069412
  0.2852466926759618  0.5893153799725184  0.6858658310075469
  0.7848557153121050  0.0897042220201882  0.1839764887619708
  0.7841537791475304  0.0901145478341121  0.6836391824327919
  0.7868238973777508  0.5899763544714034  0.1844212825251716
  0.7838101971002231  0.5905378666480274  0.6837202033132215
  0.4090599058505546  0.2138830087846060  0.4336974330894066
  0.4100077372319575  0.2151433344006008  0.9339479970388496
  0.4058789727413910  0.7089596068266104  0.4340262683981706
  0.4106509650316710  0.7151086260280692  0.9340650599512088
  0.9103321080132787  0.2137949877822578  0.4340408551447226
  0.9099494480950767  0.2149825268520118  0.9341878307164890
  0.9138114578714820  0.7144868951045495  0.4350323200368464
  0.9106523324276878  0.7151157784377133  0.9342123915929292
  0.2157654813181580  0.4088617380979542  0.3162014473303074
  0.2138518745150648  0.4100084285699097  0.8157319731499584
  0.2153482064745447  0.9116408114250234  0.3153717266590021
  0.2146044682029711  0.9101341816870274  0.8160696453177181
  0.7162980488394410  0.4103328498960934  0.3165586330699952
  0.7138667228878219  0.4103557377633393  0.8156853829317257
  0.7150956021166124  0.9103480771599521  0.3159496711397338
  0.7151537905848571  0.9108251751886129  0.8158543686447928
  0.4757347780541750  0.4173863149316617  0.3056841570601989
  0.4725726016090661  0.4162345603838773  0.8066617780111969
  0.4732509295445411  0.9154570603688725  0.3061349302772953
  0.4745433756521322  0.9163357536335397  0.8067353755372224
  0.9752706753975389  0.4155255813814094  0.3069897131210482
  0.9726991076617324  0.4164124005219918  0.8064060201772776
  0.9745524135782446  0.9153398546307443  0.3058430947702533
  0.9735346961602289  0.9161688860882720  0.8063796376770469
  0.4149399442182684  0.4747987548041337  0.4366948412368714
  0.4163943437234678  0.4745320695091806  0.9433200187075386
  0.4152318231402958  0.9728051305587115  0.4438773495548531
  0.4163182360426632  0.9743214426443672  0.9433867682120294
  0.9151221525072586  0.4749925718535835  0.4441611170032260
  0.9159765785874683  0.4743803023890791  0.9436830586788787
  0.9164570033258101  0.9725889378540984  0.4437862333427844
  0.9160118146972707  0.9739880814831281  0.9435901822917998
  0.0252669767409301  0.0842621227181581  0.1928003340459057
  0.0256141461703407  0.0838247141721808  0.6938016342867783
  0.0284745050892923  0.5840492575185436  0.1939906315763977
  0.0250047444422279  0.5835893596224082  0.6937412930334048
  0.5259576901012579  0.0842516925161760  0.1935067839351845
  0.5257251725238206  0.0845602955305651  0.6936808112854962
  0.5278939213186931  0.5844788430325636  0.1929504555815171
  0.5251784747950339  0.5827898501252733  0.6935164942317655
  0.0836613940630500  0.0260054337775841  0.0563195856109715
  0.0845088465367425  0.0251127843956951  0.5564560457410721
  0.0843123398233629  0.5257933272374871  0.0564620984128226
  0.0845074769230933  0.5234676969917871  0.5578924576937965
  0.5841004015282820  0.0262879707236010  0.0561682641158043
  0.5839083530764384  0.0261725797948174  0.5561855357826175
  0.5844754857343872  0.5259666182332126  0.0561363567680644
  0.5785271406548560  0.5268104812233148  0.5545972585786529
 
  0.00000000E+00  0.00000000E+00  0.00000000E+00
  0.00000000E+00  0.00000000E+00  0.00000000E+00
  0.00000000E+00  0.00000000E+00  0.00000000E+00
  0.00000000E+00  0.00000000E+00  0.00000000E+00
  0.00000000E+00  0.00000000E+00  0.00000000E+00
  0.00000000E+00  0.00000000E+00  0.00000000E+00
  0.00000000E+00  0.00000000E+00  0.00000000E+00
  0.00000000E+00  0.00000000E+00  0.00000000E+00
  0.00000000E+00  0.00000000E+00  0.00000000E+00
  0.00000000E+00  0.00000000E+00  0.00000000E+00
  0.00000000E+00  0.00000000E+00  0.00000000E+00
  0.00000000E+00  0.00000000E+00  0.00000000E+00
  0.00000000E+00  0.00000000E+00  0.00000000E+00
  0.00000000E+00  0.00000000E+00  0.00000000E+00
  0.00000000E+00  0.00000000E+00  0.00000000E+00
  0.00000000E+00  0.00000000E+00  0.00000000E+00
  0.00000000E+00  0.00000000E+00  0.00000000E+00
  0.00000000E+00  0.00000000E+00  0.00000000E+00
  0.00000000E+00  0.00000000E+00  0.00000000E+00
  0.00000000E+00  0.00000000E+00  0.00000000E+00
  0.00000000E+00  0.00000000E+00  0.00000000E+00
  0.00000000E+00  0.00000000E+00  0.00000000E+00
  0.00000000E+00  0.00000000E+00  0.00000000E+00
  0.00000000E+00  0.00000000E+00  0.00000000E+00
  0.00000000E+00  0.00000000E+00  0.00000000E+00
  0.00000000E+00  0.00000000E+00  0.00000000E+00
  0.00000000E+00  0.00000000E+00  0.00000000E+00
  0.00000000E+00  0.00000000E+00  0.00000000E+00
  0.00000000E+00  0.00000000E+00  0.00000000E+00
  0.00000000E+00  0.00000000E+00  0.00000000E+00
  0.00000000E+00  0.00000000E+00  0.00000000E+00
  0.00000000E+00  0.00000000E+00  0.00000000E+00
  0.00000000E+00  0.00000000E+00  0.00000000E+00
  0.00000000E+00  0.00000000E+00  0.00000000E+00
  0.00000000E+00  0.00000000E+00  0.00000000E+00
  0.00000000E+00  0.00000000E+00  0.00000000E+00
  0.00000000E+00  0.00000000E+00  0.00000000E+00
  0.00000000E+00  0.00000000E+00  0.00000000E+00
  0.00000000E+00  0.00000000E+00  0.00000000E+00
  0.00000000E+00  0.00000000E+00  0.00000000E+00
  0.00000000E+00  0.00000000E+00  0.00000000E+00
  0.00000000E+00  0.00000000E+00  0.00000000E+00
  0.00000000E+00  0.00000000E+00  0.00000000E+00
  0.00000000E+00  0.00000000E+00  0.00000000E+00
  0.00000000E+00  0.00000000E+00  0.00000000E+00
  0.00000000E+00  0.00000000E+00  0.00000000E+00
  0.00000000E+00  0.00000000E+00  0.00000000E+00
  0.00000000E+00  0.00000000E+00  0.00000000E+00
  0.00000000E+00  0.00000000E+00  0.00000000E+00
  0.00000000E+00  0.00000000E+00  0.00000000E+00
  0.00000000E+00  0.00000000E+00  0.00000000E+00
  0.00000000E+00  0.00000000E+00  0.00000000E+00
  0.00000000E+00  0.00000000E+00  0.00000000E+00
  0.00000000E+00  0.00000000E+00  0.00000000E+00
  0.00000000E+00  0.00000000E+00  0.00000000E+00
  0.00000000E+00  0.00000000E+00  0.00000000E+00
  0.00000000E+00  0.00000000E+00  0.00000000E+00
  0.00000000E+00  0.00000000E+00  0.00000000E+00
  0.00000000E+00  0.00000000E+00  0.00000000E+00
  0.00000000E+00  0.00000000E+00  0.00000000E+00
  0.00000000E+00  0.00000000E+00  0.00000000E+00
  0.00000000E+00  0.00000000E+00  0.00000000E+00
  0.00000000E+00  0.00000000E+00  0.00000000E+00
  0.00000000E+00  0.00000000E+00  0.00000000E+00
  0.00000000E+00  0.00000000E+00  0.00000000E+00
  0.00000000E+00  0.00000000E+00  0.00000000E+00
  0.00000000E+00  0.00000000E+00  0.00000000E+00
  0.00000000E+00  0.00000000E+00  0.00000000E+00
  0.00000000E+00  0.00000000E+00  0.00000000E+00
  0.00000000E+00  0.00000000E+00  0.00000000E+00
  0.00000000E+00  0.00000000E+00  0.00000000E+00
  0.00000000E+00  0.00000000E+00  0.00000000E+00
  0.00000000E+00  0.00000000E+00  0.00000000E+00
  0.00000000E+00  0.00000000E+00  0.00000000E+00
  0.00000000E+00  0.00000000E+00  0.00000000E+00
  0.00000000E+00  0.00000000E+00  0.00000000E+00
  0.00000000E+00  0.00000000E+00  0.00000000E+00
  0.00000000E+00  0.00000000E+00  0.00000000E+00
  0.00000000E+00  0.00000000E+00  0.00000000E+00
  0.00000000E+00  0.00000000E+00  0.00000000E+00
  0.00000000E+00  0.00000000E+00  0.00000000E+00
  0.00000000E+00  0.00000000E+00  0.00000000E+00
  0.00000000E+00  0.00000000E+00  0.00000000E+00
  0.00000000E+00  0.00000000E+00  0.00000000E+00
  0.00000000E+00  0.00000000E+00  0.00000000E+00
  0.00000000E+00  0.00000000E+00  0.00000000E+00
  0.00000000E+00  0.00000000E+00  0.00000000E+00
  0.00000000E+00  0.00000000E+00  0.00000000E+00
  0.00000000E+00  0.00000000E+00  0.00000000E+00
  0.00000000E+00  0.00000000E+00  0.00000000E+00
  0.00000000E+00  0.00000000E+00  0.00000000E+00
  0.00000000E+00  0.00000000E+00  0.00000000E+00
  0.00000000E+00  0.00000000E+00  0.00000000E+00
  0.00000000E+00  0.00000000E+00  0.00000000E+00
  0.00000000E+00  0.00000000E+00  0.00000000E+00
  0.00000000E+00  0.00000000E+00  0.00000000E+00
  0.00000000E+00  0.00000000E+00  0.00000000E+00
  0.00000000E+00  0.00000000E+00  0.00000000E+00
  0.00000000E+00  0.00000000E+00  0.00000000E+00
  0.00000000E+00  0.00000000E+00  0.00000000E+00
  0.00000000E+00  0.00000000E+00  0.00000000E+00
  0.00000000E+00  0.00000000E+00  0.00000000E+00
  0.00000000E+00  0.00000000E+00  0.00000000E+00
  0.00000000E+00  0.00000000E+00  0.00000000E+00
  0.00000000E+00  0.00000000E+00  0.00000000E+00
  0.00000000E+00  0.00000000E+00  0.00000000E+00
  0.00000000E+00  0.00000000E+00  0.00000000E+00
  0.00000000E+00  0.00000000E+00  0.00000000E+00
  0.00000000E+00  0.00000000E+00  0.00000000E+00
  0.00000000E+00  0.00000000E+00  0.00000000E+00
  0.00000000E+00  0.00000000E+00  0.00000000E+00
  0.00000000E+00  0.00000000E+00  0.00000000E+00
  0.00000000E+00  0.00000000E+00  0.00000000E+00
  0.00000000E+00  0.00000000E+00  0.00000000E+00
  0.00000000E+00  0.00000000E+00  0.00000000E+00
  0.00000000E+00  0.00000000E+00  0.00000000E+00
  0.00000000E+00  0.00000000E+00  0.00000000E+00
  0.00000000E+00  0.00000000E+00  0.00000000E+00
  0.00000000E+00  0.00000000E+00  0.00000000E+00
  0.00000000E+00  0.00000000E+00  0.00000000E+00
  0.00000000E+00  0.00000000E+00  0.00000000E+00
  0.00000000E+00  0.00000000E+00  0.00000000E+00
  0.00000000E+00  0.00000000E+00  0.00000000E+00
  0.00000000E+00  0.00000000E+00  0.00000000E+00
  0.00000000E+00  0.00000000E+00  0.00000000E+00
  0.00000000E+00  0.00000000E+00  0.00000000E+00
  0.00000000E+00  0.00000000E+00  0.00000000E+00
  0.00000000E+00  0.00000000E+00  0.00000000E+00
  0.00000000E+00  0.00000000E+00  0.00000000E+00
  0.00000000E+00  0.00000000E+00  0.00000000E+00
  0.00000000E+00  0.00000000E+00  0.00000000E+00
  0.00000000E+00  0.00000000E+00  0.00000000E+00
  0.00000000E+00  0.00000000E+00  0.00000000E+00
  0.00000000E+00  0.00000000E+00  0.00000000E+00
  0.00000000E+00  0.00000000E+00  0.00000000E+00
  0.00000000E+00  0.00000000E+00  0.00000000E+00
  0.00000000E+00  0.00000000E+00  0.00000000E+00
  0.00000000E+00  0.00000000E+00  0.00000000E+00
  0.00000000E+00  0.00000000E+00  0.00000000E+00
  0.00000000E+00  0.00000000E+00  0.00000000E+00
  0.00000000E+00  0.00000000E+00  0.00000000E+00
  0.00000000E+00  0.00000000E+00  0.00000000E+00
  0.00000000E+00  0.00000000E+00  0.00000000E+00
  0.00000000E+00  0.00000000E+00  0.00000000E+00
  0.00000000E+00  0.00000000E+00  0.00000000E+00
  0.00000000E+00  0.00000000E+00  0.00000000E+00
  0.00000000E+00  0.00000000E+00  0.00000000E+00
  0.00000000E+00  0.00000000E+00  0.00000000E+00
  0.00000000E+00  0.00000000E+00  0.00000000E+00
  0.00000000E+00  0.00000000E+00  0.00000000E+00
  0.00000000E+00  0.00000000E+00  0.00000000E+00
  0.00000000E+00  0.00000000E+00  0.00000000E+00
  0.00000000E+00  0.00000000E+00  0.00000000E+00
  0.00000000E+00  0.00000000E+00  0.00000000E+00
  0.00000000E+00  0.00000000E+00  0.00000000E+00
  0.00000000E+00  0.00000000E+00  0.00000000E+00
  0.00000000E+00  0.00000000E+00  0.00000000E+00
  0.00000000E+00  0.00000000E+00  0.00000000E+00
  0.00000000E+00  0.00000000E+00  0.00000000E+00
  0.00000000E+00  0.00000000E+00  0.00000000E+00
  0.00000000E+00  0.00000000E+00  0.00000000E+00
  0.00000000E+00  0.00000000E+00  0.00000000E+00
  0.00000000E+00  0.00000000E+00  0.00000000E+00
  0.00000000E+00  0.00000000E+00  0.00000000E+00
  0.00000000E+00  0.00000000E+00  0.00000000E+00
  0.00000000E+00  0.00000000E+00  0.00000000E+00
  0.00000000E+00  0.00000000E+00  0.00000000E+00
  0.00000000E+00  0.00000000E+00  0.00000000E+00
  0.00000000E+00  0.00000000E+00  0.00000000E+00
  0.00000000E+00  0.00000000E+00  0.00000000E+00
  0.00000000E+00  0.00000000E+00  0.00000000E+00
  0.00000000E+00  0.00000000E+00  0.00000000E+00
  0.00000000E+00  0.00000000E+00  0.00000000E+00
  0.00000000E+00  0.00000000E+00  0.00000000E+00
  0.00000000E+00  0.00000000E+00  0.00000000E+00
  0.00000000E+00  0.00000000E+00  0.00000000E+00
  0.00000000E+00  0.00000000E+00  0.00000000E+00
  0.00000000E+00  0.00000000E+00  0.00000000E+00
  0.00000000E+00  0.00000000E+00  0.00000000E+00
  0.00000000E+00  0.00000000E+00  0.00000000E+00
  0.00000000E+00  0.00000000E+00  0.00000000E+00
  0.00000000E+00  0.00000000E+00  0.00000000E+00
  0.00000000E+00  0.00000000E+00  0.00000000E+00
  0.00000000E+00  0.00000000E+00  0.00000000E+00
  0.00000000E+00  0.00000000E+00  0.00000000E+00
  0.00000000E+00  0.00000000E+00  0.00000000E+00
  0.00000000E+00  0.00000000E+00  0.00000000E+00
  0.00000000E+00  0.00000000E+00  0.00000000E+00
  0.00000000E+00  0.00000000E+00  0.00000000E+00
  0.00000000E+00  0.00000000E+00  0.00000000E+00
  0.00000000E+00  0.00000000E+00  0.00000000E+00
  0.00000000E+00  0.00000000E+00  0.00000000E+00
  0.00000000E+00  0.00000000E+00  0.00000000E+00
  0.00000000E+00  0.00000000E+00  0.00000000E+00
  0.00000000E+00  0.00000000E+00  0.00000000E+00
  0.00000000E+00  0.00000000E+00  0.00000000E+00
  0.00000000E+00  0.00000000E+00  0.00000000E+00
  0.00000000E+00  0.00000000E+00  0.00000000E+00
  0.00000000E+00  0.00000000E+00  0.00000000E+00
  0.00000000E+00  0.00000000E+00  0.00000000E+00
  0.00000000E+00  0.00000000E+00  0.00000000E+00
  0.00000000E+00  0.00000000E+00  0.00000000E+00
  0.00000000E+00  0.00000000E+00  0.00000000E+00
  0.00000000E+00  0.00000000E+00  0.00000000E+00
  0.00000000E+00  0.00000000E+00  0.00000000E+00
  0.00000000E+00  0.00000000E+00  0.00000000E+00
  0.00000000E+00  0.00000000E+00  0.00000000E+00
  0.00000000E+00  0.00000000E+00  0.00000000E+00
  0.00000000E+00  0.00000000E+00  0.00000000E+00
  0.00000000E+00  0.00000000E+00  0.00000000E+00
  0.00000000E+00  0.00000000E+00  0.00000000E+00
  0.00000000E+00  0.00000000E+00  0.00000000E+00
  0.00000000E+00  0.00000000E+00  0.00000000E+00
  0.00000000E+00  0.00000000E+00  0.00000000E+00
  0.00000000E+00  0.00000000E+00  0.00000000E+00
  0.00000000E+00  0.00000000E+00  0.00000000E+00
  0.00000000E+00  0.00000000E+00  0.00000000E+00
  0.00000000E+00  0.00000000E+00  0.00000000E+00
  0.00000000E+00  0.00000000E+00  0.00000000E+00
  0.00000000E+00  0.00000000E+00  0.00000000E+00
  0.00000000E+00  0.00000000E+00  0.00000000E+00
  0.00000000E+00  0.00000000E+00  0.00000000E+00
  0.00000000E+00  0.00000000E+00  0.00000000E+00
  0.00000000E+00  0.00000000E+00  0.00000000E+00
  0.00000000E+00  0.00000000E+00  0.00000000E+00
  0.00000000E+00  0.00000000E+00  0.00000000E+00
  0.00000000E+00  0.00000000E+00  0.00000000E+00
  0.00000000E+00  0.00000000E+00  0.00000000E+00
  0.00000000E+00  0.00000000E+00  0.00000000E+00
  0.00000000E+00  0.00000000E+00  0.00000000E+00
  0.00000000E+00  0.00000000E+00  0.00000000E+00
  0.00000000E+00  0.00000000E+00  0.00000000E+00
  0.00000000E+00  0.00000000E+00  0.00000000E+00
  0.00000000E+00  0.00000000E+00  0.00000000E+00
  0.00000000E+00  0.00000000E+00  0.00000000E+00
  0.00000000E+00  0.00000000E+00  0.00000000E+00
  0.00000000E+00  0.00000000E+00  0.00000000E+00
  0.00000000E+00  0.00000000E+00  0.00000000E+00
  0.00000000E+00  0.00000000E+00  0.00000000E+00
  0.00000000E+00  0.00000000E+00  0.00000000E+00
  0.00000000E+00  0.00000000E+00  0.00000000E+00
  0.00000000E+00  0.00000000E+00  0.00000000E+00
  0.00000000E+00  0.00000000E+00  0.00000000E+00
  0.00000000E+00  0.00000000E+00  0.00000000E+00
  0.00000000E+00  0.00000000E+00  0.00000000E+00
  0.00000000E+00  0.00000000E+00  0.00000000E+00
  0.00000000E+00  0.00000000E+00  0.00000000E+00
  0.00000000E+00  0.00000000E+00  0.00000000E+00
  0.00000000E+00  0.00000000E+00  0.00000000E+00
  0.00000000E+00  0.00000000E+00  0.00000000E+00
  0.00000000E+00  0.00000000E+00  0.00000000E+00
  0.00000000E+00  0.00000000E+00  0.00000000E+00
  0.00000000E+00  0.00000000E+00  0.00000000E+00
  0.00000000E+00  0.00000000E+00  0.00000000E+00
  0.00000000E+00  0.00000000E+00  0.00000000E+00
  0.00000000E+00  0.00000000E+00  0.00000000E+00
