Li64 Nb64 O192
1.0
15.146960 -0.001247 -0.001161
1.057607 15.109742 -0.000968
1.057636 0.985967 15.077715
Li Nb O
64 64 192
direct
0.250019 0.250018 0.250020 Li
0.250019 0.250018 0.750020 Li
0.250019 0.750018 0.250020 Li
0.250019 0.750018 0.750020 Li
0.750019 0.250018 0.250020 Li
0.750019 0.250018 0.750020 Li
0.750019 0.750018 0.250020 Li
0.750019 0.750018 0.750020 Li
0.000019 0.250018 0.000020 Li
0.000019 0.250018 0.500020 Li
0.000019 0.750018 0.000020 Li
0.000019 0.750018 0.500020 Li
0.500019 0.250018 0.000020 Li
0.500019 0.250018 0.500020 Li
0.500019 0.750018 0.000020 Li
0.500019 0.750018 0.500020 Li
0.250019 0.000018 0.000020 Li
0.250019 0.000018 0.500020 Li
0.250019 0.500018 0.000020 Li
0.250019 0.500018 0.500020 Li
0.750019 0.000018 0.000020 Li
0.750019 0.000018 0.500020 Li
0.750019 0.500018 0.000020 Li
0.750019 0.500018 0.500020 Li
0.000019 0.000018 0.250020 Li
0.000019 0.000018 0.750020 Li
0.000019 0.500018 0.250020 Li
0.000019 0.500018 0.750020 Li
0.500019 0.000018 0.250020 Li
0.500019 0.000018 0.750020 Li
0.500019 0.500018 0.250020 Li
0.500019 0.500018 0.750020 Li
0.000018 0.000019 0.000019 Li
0.000018 0.000019 0.500019 Li
0.000018 0.500019 0.000019 Li
0.000018 0.500019 0.500019 Li
0.500018 0.000019 0.000019 Li
0.500018 0.000019 0.500019 Li
0.500018 0.500019 0.000019 Li
0.500018 0.500019 0.500019 Li
0.250018 0.000019 0.250019 Li
0.250018 0.000019 0.750019 Li
0.250018 0.500019 0.250019 Li
0.250018 0.500019 0.750019 Li
0.750018 0.000019 0.250019 Li
0.750018 0.000019 0.750019 Li
0.750018 0.500019 0.250019 Li
0.750018 0.500019 0.750019 Li
0.000018 0.250019 0.250019 Li
0.000018 0.250019 0.750019 Li
0.000018 0.750019 0.250019 Li
0.000018 0.750019 0.750019 Li
0.500018 0.250019 0.250019 Li
0.500018 0.250019 0.750019 Li
0.500018 0.750019 0.250019 Li
0.500018 0.750019 0.750019 Li
0.250018 0.250019 0.000019 Li
0.250018 0.250019 0.500019 Li
0.250018 0.750019 0.000019 Li
0.250018 0.750019 0.500019 Li
0.750018 0.250019 0.000019 Li
0.750018 0.250019 0.500019 Li
0.750018 0.750019 0.000019 Li
0.750018 0.750019 0.500019 Li
0.108745 0.108750 0.108746 Nb
0.108745 0.108750 0.608746 Nb
0.108745 0.608750 0.108746 Nb
0.108745 0.608750 0.608746 Nb
0.608745 0.108751 0.108746 Nb
0.608745 0.108750 0.608746 Nb
0.608745 0.608750 0.108746 Nb
0.608745 0.608750 0.608746 Nb
0.358745 0.108750 0.358746 Nb
0.358744 0.108750 0.858746 Nb
0.358745 0.608750 0.358746 Nb
0.358745 0.608750 0.858746 Nb
0.858745 0.108750 0.358746 Nb
0.858745 0.108750 0.858746 Nb
0.858745 0.608750 0.358746 Nb
0.858745 0.608750 0.858746 Nb
0.108745 0.358750 0.358746 Nb
0.108745 0.358750 0.858746 Nb
0.108745 0.858750 0.358746 Nb
0.108745 0.858750 0.858746 Nb
0.608745 0.358750 0.358746 Nb
0.608745 0.358750 0.858746 Nb
0.608745 0.858750 0.358746 Nb
0.608745 0.858750 0.858746 Nb
0.358745 0.358750 0.108746 Nb
0.358745 0.358750 0.608746 Nb
0.358744 0.858750 0.108746 Nb
0.358745 0.858750 0.608746 Nb
0.858745 0.358750 0.108746 Nb
0.858744 0.358750 0.608746 Nb
0.858745 0.858750 0.108746 Nb
0.858745 0.858750 0.608746 Nb
0.358746 0.358748 0.358744 Nb
0.358746 0.358749 0.858744 Nb
0.358746 0.858748 0.358744 Nb
0.358746 0.858749 0.858744 Nb
0.858746 0.358748 0.358744 Nb
0.858746 0.358748 0.858744 Nb
0.858746 0.858748 0.358744 Nb
0.858746 0.858748 0.858744 Nb
0.108746 0.358748 0.108744 Nb
0.108746 0.358749 0.608744 Nb
0.108746 0.858749 0.108744 Nb
0.108746 0.858749 0.608744 Nb
0.608746 0.358749 0.108744 Nb
0.608746 0.358749 0.608744 Nb
0.608746 0.858749 0.108744 Nb
0.608746 0.858749 0.608744 Nb
0.358746 0.108749 0.108744 Nb
0.358746 0.108749 0.608744 Nb
0.358746 0.608749 0.108744 Nb
0.358746 0.608749 0.608744 Nb
0.858746 0.108749 0.108744 Nb
0.858746 0.108749 0.608744 Nb
0.858746 0.608749 0.108744 Nb
0.858746 0.608749 0.608744 Nb
0.108746 0.108749 0.358744 Nb
0.108746 0.108749 0.858744 Nb
0.108746 0.608749 0.358744 Nb
0.108746 0.608748 0.858744 Nb
0.608746 0.108749 0.358744 Nb
0.608746 0.108749 0.858744 Nb
0.608746 0.608749 0.358744 Nb
0.608746 0.608749 0.858744 Nb
0.314497 0.226491 0.379571 O
0.314497 0.226491 0.879571 O
0.314497 0.726491 0.379571 O
0.314497 0.726491 0.879571 O
0.814497 0.226491 0.379571 O
0.814497 0.226491 0.879571 O
0.814497 0.726491 0.379571 O
0.814497 0.726491 0.879571 O
0.064497 0.226491 0.129571 O
0.064497 0.226491 0.629571 O
0.064497 0.726491 0.129571 O
0.064497 0.726491 0.629571 O
0.564497 0.226491 0.129571 O
0.564497 0.226491 0.629571 O
0.564497 0.726491 0.129571 O
0.564497 0.726491 0.629571 O
0.314497 0.476491 0.129571 O
0.314497 0.476491 0.629571 O
0.314497 0.976491 0.129571 O
0.314497 0.976491 0.629571 O
0.814497 0.476491 0.129571 O
0.814497 0.476491 0.629571 O
0.814497 0.976491 0.129571 O
0.814497 0.976491 0.629571 O
0.064497 0.476491 0.379571 O
0.064497 0.476491 0.879571 O
0.064497 0.976491 0.379571 O
0.064497 0.976491 0.879571 O
0.564497 0.476491 0.379571 O
0.564497 0.476491 0.879571 O
0.564497 0.976491 0.379571 O
0.564497 0.976491 0.879571 O
0.379572 0.314495 0.226494 O
0.379572 0.314495 0.726494 O
0.379572 0.814495 0.226494 O
0.379572 0.814495 0.726494 O
0.879572 0.314495 0.226494 O
0.879572 0.314495 0.726494 O
0.879572 0.814495 0.226494 O
0.879572 0.814495 0.726494 O
0.129571 0.314495 0.476494 O
0.129572 0.314495 0.976494 O
0.129572 0.814495 0.476494 O
0.129572 0.814495 0.976494 O
0.629572 0.314495 0.476493 O
0.629572 0.314495 0.976494 O
0.629572 0.814495 0.476494 O
0.629572 0.814495 0.976493 O
0.379572 0.064495 0.476494 O
0.379572 0.064495 0.976494 O
0.379572 0.564495 0.476494 O
0.379572 0.564495 0.976494 O
0.879572 0.064495 0.476494 O
0.879572 0.064495 0.976494 O
0.879571 0.564495 0.476494 O
0.879572 0.564495 0.976494 O
0.129572 0.064495 0.226494 O
0.129572 0.064495 0.726493 O
0.129572 0.564495 0.226494 O
0.129572 0.564495 0.726494 O
0.629572 0.064495 0.226493 O
0.629572 0.064495 0.726494 O
0.629571 0.564495 0.226494 O
0.629572 0.564495 0.726494 O
0.226494 0.379571 0.314496 O
0.226494 0.379571 0.814496 O
0.226494 0.879571 0.314496 O
0.226494 0.879571 0.814496 O
0.726494 0.379571 0.314496 O
0.726494 0.379571 0.814496 O
0.726494 0.879571 0.314496 O
0.726494 0.879571 0.814496 O
0.476494 0.379571 0.064496 O
0.476494 0.379571 0.564496 O
0.476494 0.879571 0.064496 O
0.476494 0.879571 0.564496 O
0.976494 0.379571 0.064496 O
0.976494 0.379571 0.564497 O
0.976494 0.879571 0.064496 O
0.976494 0.879571 0.564496 O
0.226494 0.129571 0.064496 O
0.226494 0.129571 0.564496 O
0.226494 0.629571 0.064496 O
0.226494 0.629571 0.564496 O
0.726493 0.129571 0.064496 O
0.726494 0.129571 0.564496 O
0.726494 0.629571 0.064496 O
0.726494 0.629571 0.564496 O
0.476494 0.129571 0.314496 O
0.476494 0.129571 0.814496 O
0.476494 0.629571 0.314496 O
0.476494 0.629571 0.814496 O
0.976494 0.129571 0.314496 O
0.976494 0.129571 0.814496 O
0.976494 0.629571 0.314496 O
0.976494 0.629571 0.814496 O
0.314496 0.129571 0.226493 O
0.314496 0.129571 0.726493 O
0.314496 0.629571 0.226493 O
0.314496 0.629571 0.726493 O
0.814496 0.129571 0.226493 O
0.814496 0.129571 0.726494 O
0.814496 0.629571 0.226493 O
0.814496 0.629571 0.726493 O
0.064496 0.129571 0.476493 O
0.064496 0.129571 0.976493 O
0.064496 0.629571 0.476493 O
0.064495 0.629571 0.976494 O
0.564495 0.129571 0.476493 O
0.564496 0.129571 0.976493 O
0.564496 0.629571 0.476493 O
0.564496 0.629571 0.976493 O
0.314496 0.379571 0.476493 O
0.314496 0.379571 0.976494 O
0.314496 0.879571 0.476493 O
0.314495 0.879571 0.976493 O
0.814496 0.379571 0.476493 O
0.814496 0.379571 0.976493 O
0.814495 0.879571 0.476493 O
0.814496 0.879571 0.976493 O
0.064496 0.379571 0.226493 O
0.064496 0.379571 0.726494 O
0.064496 0.879571 0.226493 O
0.064495 0.879571 0.726493 O
0.564496 0.379571 0.226493 O
0.564496 0.379571 0.726494 O
0.564495 0.879571 0.226493 O
0.564496 0.879571 0.726493 O
0.226493 0.314495 0.129572 O
0.226493 0.314495 0.629572 O
0.226493 0.814495 0.129572 O
0.226493 0.814495 0.629572 O
0.726494 0.314495 0.129572 O
0.726493 0.314495 0.629572 O
0.726493 0.814495 0.129572 O
0.726493 0.814496 0.629572 O
0.476493 0.314495 0.379572 O
0.476493 0.314495 0.879572 O
0.476493 0.814495 0.379572 O
0.476493 0.814495 0.879572 O
0.976493 0.314495 0.379572 O
0.976493 0.314495 0.879572 O
0.976493 0.814495 0.379572 O
0.976493 0.814495 0.879572 O
0.226493 0.064495 0.379572 O
0.226493 0.064495 0.879572 O
0.226493 0.564495 0.379572 O
0.226494 0.564495 0.879572 O
0.726493 0.064495 0.379572 O
0.726493 0.064495 0.879572 O
0.726493 0.564495 0.379572 O
0.726493 0.564495 0.879572 O
0.476493 0.064495 0.129572 O
0.476493 0.064495 0.629572 O
0.476493 0.564495 0.129572 O
0.476493 0.564495 0.629572 O
0.976493 0.064495 0.129572 O
0.976493 0.064495 0.629572 O
0.976493 0.564495 0.129572 O
0.976493 0.564495 0.629572 O
0.129571 0.226490 0.314496 O
0.129572 0.226490 0.814496 O
0.129571 0.726490 0.314496 O
0.129572 0.726490 0.814496 O
0.629571 0.226490 0.314496 O
0.629572 0.226490 0.814496 O
0.629572 0.726490 0.314496 O
0.629571 0.726490 0.814496 O
0.379572 0.226490 0.064496 O
0.379571 0.226490 0.564496 O
0.379571 0.726490 0.064496 O
0.379571 0.726490 0.564496 O
0.879571 0.226490 0.064496 O
0.879571 0.226490 0.564496 O
0.879571 0.726490 0.064496 O
0.879571 0.726490 0.564496 O
0.129572 0.476490 0.064496 O
0.129572 0.476490 0.564496 O
0.129572 0.976490 0.064496 O
0.129571 0.976490 0.564496 O
0.629571 0.476490 0.064496 O
0.629572 0.476490 0.564496 O
0.629572 0.976490 0.064496 O
0.629571 0.976490 0.564496 O
0.379571 0.476490 0.314496 O
0.379572 0.476490 0.814496 O
0.379571 0.976490 0.314496 O
0.379571 0.976490 0.814496 O
0.879571 0.476490 0.314496 O
0.879571 0.476490 0.814496 O
0.879572 0.976490 0.314496 O
0.879571 0.976490 0.814496 O
