Li95 Nb33 O128                          
   1.00000000000000     
    13.7806110000000004   -0.0000030000000000   -4.8721819999999996
    -6.8903090000000002   11.9343559999999993   -4.8721850000000000
     0.0000000000000000   -0.0000040000000000   14.6165459999999996
   Li   Nb   O 
    95    33   128
Direct
  0.0000472038529296  0.1360638498563844  0.2575989311094276
  0.0007446440830634  0.1373152516096070  0.7578204461058036
  0.9991421820563886  0.6366586547743651  0.2571091837473389
  0.9998656621121071  0.6361570481615288  0.7574534411204255
  0.4997917606444204  0.1387158753988587  0.7576593972221630
  0.4998729617044972  0.6370150488460453  0.2570960258542314
  0.5000467352677589  0.6348496946960509  0.7575796824449412
  0.3632443153326079  0.3650126041637023  0.1198889155813276
  0.3627610863894191  0.3626879636343077  0.6210050272703000
  0.3575684440117257  0.8563763428572955  0.1183381064892188
  0.3613382370380336  0.8612358864502383  0.6196139531217142
  0.8677445527417547  0.3682560329345392  0.1214165639363074
  0.8672350618030364  0.3655030577405611  0.6223812671380671
  0.8628645704535245  0.8628722565470426  0.1209787564330895
  0.8643872270291908  0.8637642557841758  0.6209424977905798
  0.1321103303008258  0.9978566835776306  0.2545173355267565
  0.1333414588813469  0.0003769537036149  0.7545576179838136
  0.1355582798150863  0.4993722408572836  0.2565229836413181
  0.1371262472594026  0.5000477601853248  0.7580542228588669
  0.6423213304518356  0.0003599544449742  0.2610309723354618
  0.6380487424578973  0.9996322594341436  0.7583835429929593
  0.6362829830476500  0.5012950442757855  0.2565283132111773
  0.6370894404056671  0.4994360277310719  0.7576422992529359
  0.9999478725098072  0.2581406166638587  0.1360414400784649
  0.0010555764847382  0.2580528541885769  0.6371127770837006
  0.9990338690603977  0.7570783053232759  0.1360607142822872
  0.9999470239358672  0.7578207733541120  0.6359432866945056
  0.4992468593210049  0.2609322725679206  0.1341264285362058
  0.5004307652187876  0.2564481585625558  0.6364202696974033
  0.5002320459691703  0.7568833195145004  0.1383737193182313
  0.5000673590483800  0.7553130726362838  0.6372075225716074
  0.1367075783925955  0.2581198184498206  0.9994703690957607
  0.1371915561064512  0.2567663703852006  0.4995138707014206
  0.1322787944615271  0.7547077889502560  0.9993112830979669
  0.1353662555489521  0.7565725873145510  0.4993668831877116
  0.6378153392414987  0.2612202011310032  0.9990055126868427
  0.6451090008452880  0.2631848384397202  0.5090742493777967
  0.6374743335828086  0.7561170458097450  0.0005531906369640
  0.6383776305587503  0.7581477299145760  0.5001938988100960
  0.3528474090396543  0.1181665493466397  0.3637678793593579
  0.3614213622455367  0.1230001129206144  0.8614194157196877
  0.3613990071524498  0.6197250052883092  0.3615558288371687
  0.3621975409145506  0.6181617021151169  0.8626035176261908
  0.8678414797342739  0.1223087791087778  0.3671013350482681
  0.8647767655713281  0.1210093760770619  0.8638155491269899
  0.8634009552105439  0.6215109556011384  0.3628946731070073
  0.8626850158438089  0.6194768484487483  0.8622079454410070
  0.1205154553921872  0.3628065387949206  0.3623824315198831
  0.1213759479518188  0.3636260275923604  0.8631501973337024
  0.1198396611076902  0.8628596649465905  0.3625010228046932
  0.1167514861546408  0.8612418599892635  0.8614657238632617
  0.6263713956966086  0.3775245400891265  0.3710530257200020
  0.6214116342316274  0.3645606681199638  0.8636005493418821
  0.6229029990909396  0.8622648461902997  0.3653258500792447
  0.6218350129381918  0.8613697928050144  0.8618848117529225
  0.2563355557918996  0.1397046922521739  0.0001712844124810
  0.2550070544751080  0.1345722176516944  0.4997195425574077
  0.2550229842966587  0.6338950496093361  0.0001144363230949
  0.2559457700402206  0.6349315293345583  0.4998619051748747
  0.7620238169500055  0.1388505539833673  0.9973243504070979
  0.7615720800493122  0.1395596000561312  0.5024210686949928
  0.7565666159132931  0.6360340452241857  0.9997285164958001
  0.7586937982410831  0.6373537406976055  0.4991446661395713
  0.2430803251274298  0.9956286673478729  0.1268841306844593
  0.2551493907139388  0.0000657610954704  0.6348676521740444
  0.2565576320706029  0.5000756744285724  0.1355348824095515
  0.2588561332469652  0.5001661857985553  0.6372068629412340
  0.7595277218878067  0.9989808365489594  0.1384160457115513
  0.7584014759832485  0.9999301007883687  0.6374724259832902
  0.7575249752288400  0.5013739770710828  0.1357033107218015
  0.7588965778463574  0.5000315005433222  0.6367323045392297
  0.3734735267136955  0.2500941328744446  0.2425998746970564
  0.3786865875639833  0.2429172554850680  0.7419632364396236
  0.3774336613902634  0.7404802332397225  0.2429539399602234
  0.3783288765112189  0.7400203951019151  0.7405113192555035
  0.8849562252492618  0.2454904768752968  0.2460942577784238
  0.8802006722706253  0.2431050775979244  0.7427724596937892
  0.8787542379513695  0.7424335922040797  0.2419532872801398
  0.8795986497226949  0.7421282220957579  0.7416470172837890
  0.2406680118893192  0.2413410017849671  0.3774919869969793
  0.2424565196585036  0.2435514919850732  0.8784706926446120
  0.2412630108041327  0.7413199976202094  0.3789359659395970
  0.2400679529981034  0.7399883160762641  0.8787839853948540
  0.7533825917069237  0.2487347359481262  0.3835751162663001
  0.7446482853584442  0.2449261958860660  0.8802463902323154
  0.7433979434681319  0.7432771633710615  0.3790523578023723
  0.7410501584352431  0.7412109965269238  0.8784222309095924
  0.2413187659405409  0.3788282211421929  0.2404769997141827
  0.2433771164716134  0.3793847716750705  0.7431383468437005
  0.2389080304705118  0.8778109980021114  0.2402957272260338
  0.2381514924420500  0.8775368527626384  0.7373699911625238
  0.7452164648498680  0.3852578315945436  0.2434094489529031
  0.7446310715713196  0.3797998542143901  0.7441769104989220
  0.7445134299233018  0.8790283099638430  0.2448568767307506
  0.7441239612459540  0.8792207570274044  0.7439161225622470
  0.4969265979695336  0.1234637460997590  0.2557100566985753
  0.9999158836426361  0.9996560455879120  0.3589211190695210
  0.9999304496877741  0.0000705964284435  0.8589854223701536
  0.0004404273351284  0.5005212904578471  0.3593183942211837
  0.0000957030398894  0.4998229511057417  0.8589743754859711
  0.5026348257723825  0.9957567572332096  0.3657404631167296
  0.4991058671437330  0.0011465174151297  0.8581833867623061
  0.4998074592529420  0.5010612985013267  0.3584279534689543
  0.5000283884229830  0.4993899043629924  0.8586457957033176
  0.0005914845261472  0.3593493190585946  0.9993834246728994
  0.0030992762355169  0.3605608636498872  0.5013731817104627
  0.9964898181280972  0.8572347347052798  0.9979026785977183
  0.9995276446424768  0.8587803507069438  0.4989920338587339
  0.4999936863878389  0.3596481771040487  0.9994820712593082
  0.5000189118016323  0.3607422201359753  0.5019900601194820
  0.4995166556062642  0.8567501532310828  0.0003821434073643
  0.4997651128599969  0.8571248738936177  0.5019657802966009
  0.3552577793652816  0.9965929723270506  0.9938260023163394
  0.3585451378324009  0.9993814047699345  0.5003090406689310
  0.3593250181561061  0.5006224290761878  0.0002529384855876
  0.3580290662123815  0.4983715002839588  0.4980822135754082
  0.8583076684917330  0.9998226273909481  0.0005241141211059
  0.8598849258769690  0.0006121788735598  0.5012944368649102
  0.8591732063848028  0.5007511493425696  0.9997097779720647
  0.8609944401889891  0.5012976247376102  0.5008097186616141
  0.1387532154038311  0.1408466328876941  0.1399100764542851
  0.1408904493405032  0.1414832831754751  0.6406318045803800
  0.1400980935385903  0.6407576528420336  0.1414781624046668
  0.1417851142356952  0.6415332945599062  0.6420748930539233
  0.6466907091688938  0.1407196500527732  0.1363999691411237
  0.6417357891563285  0.1414445363987085  0.6427923381363598
  0.6407461332739928  0.6412783923820058  0.1409903140323934
  0.6421274210132495  0.6403941791691707  0.6402062676705782
  0.0006817287966996  0.3799774035564951  0.2564318205808291
  0.0008677776681552  0.3798358002892002  0.7562525094582213
  0.9992286761433959  0.8789644223711619  0.2553737218689562
  0.9996917539480066  0.8792943278583465  0.7559561153757386
  0.5000641150090388  0.3797788821694681  0.2561774379310648
  0.4998728891754567  0.3788553626124411  0.7552575116869349
  0.5000458974310291  0.8798071359537829  0.2563817301404896
  0.5002473035084165  0.8793703866998612  0.7589640374397391
  0.1205129037198489  0.1199983038683996  0.3761528250026274
  0.1204913841980542  0.1208580681745559  0.8768286921988704
  0.1211332005739294  0.6208907978857781  0.3772916839982727
  0.1208079163560214  0.6211668120738381  0.8773780623027179
  0.6271487067224584  0.1257567947287086  0.3800459612910458
  0.6212231331650173  0.1212332584843594  0.8785236684134858
  0.6210101320470187  0.6212552750438363  0.3768951688181872
  0.6202162614845932  0.6203246363441792  0.8761664485157112
  0.3745979274003659  0.0004231052774912  0.2507101680888084
  0.3786550750763524  0.0002003126698469  0.7562956872748785
  0.3789606437173560  0.5004467610340768  0.2557641895772065
  0.3797814487062894  0.5000517423521629  0.7558935620131493
  0.8792709167520130  0.0003377146837735  0.2565404088646588
  0.8791797845899580  0.9997556592174064  0.7562432622566604
  0.8799580856180995  0.5008946530446465  0.2564088909936970
  0.8796082920529855  0.4997042703523391  0.7557118156084641
  0.0016518131044094  0.2567640774236750  0.3800505842037296
  0.0003772255649181  0.2561725055115147  0.8790333189284993
  0.9997745212361480  0.7559383025176203  0.3787700271596321
  0.9984744155087242  0.7552104575579222  0.8783867093048201
  0.5018291140019926  0.2519644339370402  0.3761299877711224
  0.5000146784007171  0.2560766963454739  0.8791465897869131
  0.5000174021756720  0.7561907115293778  0.3802100575234917
  0.5001165348610783  0.7561954091834906  0.8811123490193324
  0.3794507602789778  0.2562980837166222  0.9996937372308707
  0.3794502836981977  0.2535693267946115  0.4971096454083366
  0.3789837462652912  0.7572644921981748  0.0017195284386631
  0.3789995494834528  0.7545416523340336  0.5010116554272273
  0.8797778408014665  0.2567541685792207  0.9998158112965783
  0.8821532139902715  0.2576174839499714  0.5014790851924360
  0.8768772693512119  0.7548833770291523  0.9987485396414968
  0.8793230688209732  0.7560387205037742  0.4995722581613080
  0.1206899128333347  0.3770216966481783  0.1203883502893461
  0.1229845934826272  0.3780034321561345  0.6217608301141766
  0.1178315351384143  0.8756437809407345  0.1191474164819724
  0.1203320598491047  0.8768695222073006  0.6200909421700374
  0.6203130160173984  0.3763726383823354  0.1203492089948881
  0.6207470067962504  0.3747142849946883  0.6191227265508203
  0.6206782327084213  0.8781530440991077  0.1224038127575184
  0.6208139549784804  0.8755738947136678  0.6219088830684782
  0.3762662708211693  0.1239702539362995  0.1210770535693229
  0.3767223772540831  0.1202780484315014  0.6204988601606800
  0.3767819520630695  0.6211085910639085  0.1209958165893781
  0.3777033066665183  0.6189217649020264  0.6205861364065512
  0.8757322636657534  0.1210088110127288  0.1204038028450753
  0.8774769453993940  0.1213227280537055  0.6214882863796092
  0.8762468891185335  0.6208138969100929  0.1201610124924599
  0.8776607946532877  0.6212702653489828  0.6207729521992960
  0.2563325840698596  0.3796963180583646  0.9998153957196081
  0.2568833894292979  0.3779662039906100  0.4992565379862342
  0.2550925634856753  0.8799729063337267  0.9993192866425176
  0.2563690799695166  0.8788112528130227  0.5003350672993108
  0.7564430431224736  0.3798792359115950  0.9998289563976428
  0.7576272279065321  0.3803254330267478  0.5004807757073451
  0.7546015865906668  0.8791815183399905  0.9998864849759954
  0.7564324797369935  0.8795651569200587  0.5005415704657352
  0.2557110182825468  0.9986946001788368  0.3786441800727474
  0.2544433899473688  0.0004428962035448  0.8780705542250189
  0.2556615839980907  0.4990544890454487  0.3786799221375077
  0.2564920717829011  0.5006444110160828  0.8796077880336028
  0.7570751599226000  0.0007463682227851  0.3804430705046542
  0.7552822955440988  0.9998168207147131  0.8796032417865760
  0.7563449079207984  0.4997779936137619  0.3791894046666684
  0.7557737788561383  0.4995514489988224  0.8784424676359635
  0.1220122524472131  0.2437392262255287  0.2434621246210966
  0.1238254129392544  0.2445219006919288  0.7439385902995568
  0.1225945669887807  0.7439242345272774  0.2440420378530135
  0.1240549539949001  0.7448867262354000  0.7445688810448701
  0.6170835655080538  0.2383061316267501  0.2421864101902571
  0.6233655763205022  0.2437554555132095  0.7446733428216206
  0.6232369892495981  0.7442205550712586  0.2442886392366432
  0.6226810043385385  0.7413965889160679  0.7430370845273870
  0.2428751677696113  0.2443891271737044  0.1231162831234656
  0.2442761530136508  0.2436438935364222  0.6226009566813744
  0.2430953920002921  0.7441050021358251  0.1237461031401637
  0.2448147066790725  0.7445895688477862  0.6243459537302556
  0.7468239364652192  0.2483676100597663  0.1248921162482191
  0.7448516195429633  0.2436710662995907  0.6245367612579145
  0.7435287602199452  0.7441845955824320  0.1232216707941447
  0.7444317866202823  0.7432212883720695  0.6228828771165809
  0.2422783748453909  0.1230655382924581  0.2428616820023706
  0.2436383702064759  0.1232970696810369  0.7433488214984436
  0.2436157394532614  0.6233517741887695  0.2442622932717740
  0.2453433016549837  0.6245240257836358  0.7451903392977073
  0.7453882161436880  0.1253807553602542  0.2443411292955560
  0.7436548112716537  0.1224604962037716  0.7444594747724835
  0.7436140735809857  0.6231880916068917  0.2434810886095704
  0.7434885944140035  0.6213480491690362  0.7424652312334459
  0.9985592562329373  0.9995937847926228  0.1136709822382898
  0.0004552605045376  0.0002802651641858  0.6144160789409412
  0.9996536405931522  0.4999639818579880  0.1141354676415745
  0.0012153864277238  0.5007517609447518  0.6147905586533682
  0.5002617152370092  0.0047644358649350  0.1238297555663550
  0.5001222135363861  0.9989757548192202  0.6133494924186991
  0.4999972452240797  0.5000678535485008  0.1141301244699093
  0.5003098464445372  0.4953564600464873  0.6121354282223024
  0.9990727830245305  0.1136882937768391  0.9996310342293668
  0.0001413403447756  0.1143994472477132  0.4999876733365980
  0.9999716207110438  0.6144022216388549  0.9999586639928992
  0.0008391766130416  0.6144947731337282  0.5004370055655372
  0.5005629008058676  0.1133746556897179  0.0021447817577922
  0.5002210811188945  0.1132364884860522  0.4998246155030444
  0.5000439125550429  0.6144455843410483  0.9998874357569818
  0.5002052374938017  0.6119355717172610  0.5001398043337844
  0.1139740574593091  0.9994034968074814  0.0002405265975511
  0.1144184585719614  0.0000592658004592  0.4996320200168398
  0.1145468319295517  0.5004734369811530  0.0003170823495324
  0.1152997302827572  0.5009175849943759  0.5006548023675208
  0.6138086466794022  0.0018455565326789  0.0046156560150905
  0.6157276010291710  0.9991454043567742  0.5006298924949562
  0.6142119110079136  0.5000212954187049  0.9997690994251300
  0.6140245881432662  0.4971993922231448  0.4978098424749930
  0.3857788417745383  0.3838708171022702  0.3839189086027375
  0.3859181644852114  0.3859575217623785  0.8856329662522455
  0.3856176903056223  0.8845903500426502  0.3856043159064484
  0.3876896640784082  0.8886459608212007  0.8905606860656050
  0.8859630624994850  0.3852673271420670  0.3857630069731144
  0.8859071892249304  0.3859335046720318  0.8855120479328065
  0.8856939268438353  0.8859176532795843  0.3858385830216378
  0.8847570714669288  0.8856467451068823  0.8854417163846406
 
  0.00000000E+00  0.00000000E+00  0.00000000E+00
  0.00000000E+00  0.00000000E+00  0.00000000E+00
  0.00000000E+00  0.00000000E+00  0.00000000E+00
  0.00000000E+00  0.00000000E+00  0.00000000E+00
  0.00000000E+00  0.00000000E+00  0.00000000E+00
  0.00000000E+00  0.00000000E+00  0.00000000E+00
  0.00000000E+00  0.00000000E+00  0.00000000E+00
  0.00000000E+00  0.00000000E+00  0.00000000E+00
  0.00000000E+00  0.00000000E+00  0.00000000E+00
  0.00000000E+00  0.00000000E+00  0.00000000E+00
  0.00000000E+00  0.00000000E+00  0.00000000E+00
  0.00000000E+00  0.00000000E+00  0.00000000E+00
  0.00000000E+00  0.00000000E+00  0.00000000E+00
  0.00000000E+00  0.00000000E+00  0.00000000E+00
  0.00000000E+00  0.00000000E+00  0.00000000E+00
  0.00000000E+00  0.00000000E+00  0.00000000E+00
  0.00000000E+00  0.00000000E+00  0.00000000E+00
  0.00000000E+00  0.00000000E+00  0.00000000E+00
  0.00000000E+00  0.00000000E+00  0.00000000E+00
  0.00000000E+00  0.00000000E+00  0.00000000E+00
  0.00000000E+00  0.00000000E+00  0.00000000E+00
  0.00000000E+00  0.00000000E+00  0.00000000E+00
  0.00000000E+00  0.00000000E+00  0.00000000E+00
  0.00000000E+00  0.00000000E+00  0.00000000E+00
  0.00000000E+00  0.00000000E+00  0.00000000E+00
  0.00000000E+00  0.00000000E+00  0.00000000E+00
  0.00000000E+00  0.00000000E+00  0.00000000E+00
  0.00000000E+00  0.00000000E+00  0.00000000E+00
  0.00000000E+00  0.00000000E+00  0.00000000E+00
  0.00000000E+00  0.00000000E+00  0.00000000E+00
  0.00000000E+00  0.00000000E+00  0.00000000E+00
  0.00000000E+00  0.00000000E+00  0.00000000E+00
  0.00000000E+00  0.00000000E+00  0.00000000E+00
  0.00000000E+00  0.00000000E+00  0.00000000E+00
  0.00000000E+00  0.00000000E+00  0.00000000E+00
  0.00000000E+00  0.00000000E+00  0.00000000E+00
  0.00000000E+00  0.00000000E+00  0.00000000E+00
  0.00000000E+00  0.00000000E+00  0.00000000E+00
  0.00000000E+00  0.00000000E+00  0.00000000E+00
  0.00000000E+00  0.00000000E+00  0.00000000E+00
  0.00000000E+00  0.00000000E+00  0.00000000E+00
  0.00000000E+00  0.00000000E+00  0.00000000E+00
  0.00000000E+00  0.00000000E+00  0.00000000E+00
  0.00000000E+00  0.00000000E+00  0.00000000E+00
  0.00000000E+00  0.00000000E+00  0.00000000E+00
  0.00000000E+00  0.00000000E+00  0.00000000E+00
  0.00000000E+00  0.00000000E+00  0.00000000E+00
  0.00000000E+00  0.00000000E+00  0.00000000E+00
  0.00000000E+00  0.00000000E+00  0.00000000E+00
  0.00000000E+00  0.00000000E+00  0.00000000E+00
  0.00000000E+00  0.00000000E+00  0.00000000E+00
  0.00000000E+00  0.00000000E+00  0.00000000E+00
  0.00000000E+00  0.00000000E+00  0.00000000E+00
  0.00000000E+00  0.00000000E+00  0.00000000E+00
  0.00000000E+00  0.00000000E+00  0.00000000E+00
  0.00000000E+00  0.00000000E+00  0.00000000E+00
  0.00000000E+00  0.00000000E+00  0.00000000E+00
  0.00000000E+00  0.00000000E+00  0.00000000E+00
  0.00000000E+00  0.00000000E+00  0.00000000E+00
  0.00000000E+00  0.00000000E+00  0.00000000E+00
  0.00000000E+00  0.00000000E+00  0.00000000E+00
  0.00000000E+00  0.00000000E+00  0.00000000E+00
  0.00000000E+00  0.00000000E+00  0.00000000E+00
  0.00000000E+00  0.00000000E+00  0.00000000E+00
  0.00000000E+00  0.00000000E+00  0.00000000E+00
  0.00000000E+00  0.00000000E+00  0.00000000E+00
  0.00000000E+00  0.00000000E+00  0.00000000E+00
  0.00000000E+00  0.00000000E+00  0.00000000E+00
  0.00000000E+00  0.00000000E+00  0.00000000E+00
  0.00000000E+00  0.00000000E+00  0.00000000E+00
  0.00000000E+00  0.00000000E+00  0.00000000E+00
  0.00000000E+00  0.00000000E+00  0.00000000E+00
  0.00000000E+00  0.00000000E+00  0.00000000E+00
  0.00000000E+00  0.00000000E+00  0.00000000E+00
  0.00000000E+00  0.00000000E+00  0.00000000E+00
  0.00000000E+00  0.00000000E+00  0.00000000E+00
  0.00000000E+00  0.00000000E+00  0.00000000E+00
  0.00000000E+00  0.00000000E+00  0.00000000E+00
  0.00000000E+00  0.00000000E+00  0.00000000E+00
  0.00000000E+00  0.00000000E+00  0.00000000E+00
  0.00000000E+00  0.00000000E+00  0.00000000E+00
  0.00000000E+00  0.00000000E+00  0.00000000E+00
  0.00000000E+00  0.00000000E+00  0.00000000E+00
  0.00000000E+00  0.00000000E+00  0.00000000E+00
  0.00000000E+00  0.00000000E+00  0.00000000E+00
  0.00000000E+00  0.00000000E+00  0.00000000E+00
  0.00000000E+00  0.00000000E+00  0.00000000E+00
  0.00000000E+00  0.00000000E+00  0.00000000E+00
  0.00000000E+00  0.00000000E+00  0.00000000E+00
  0.00000000E+00  0.00000000E+00  0.00000000E+00
  0.00000000E+00  0.00000000E+00  0.00000000E+00
  0.00000000E+00  0.00000000E+00  0.00000000E+00
  0.00000000E+00  0.00000000E+00  0.00000000E+00
  0.00000000E+00  0.00000000E+00  0.00000000E+00
  0.00000000E+00  0.00000000E+00  0.00000000E+00
  0.00000000E+00  0.00000000E+00  0.00000000E+00
  0.00000000E+00  0.00000000E+00  0.00000000E+00
  0.00000000E+00  0.00000000E+00  0.00000000E+00
  0.00000000E+00  0.00000000E+00  0.00000000E+00
  0.00000000E+00  0.00000000E+00  0.00000000E+00
  0.00000000E+00  0.00000000E+00  0.00000000E+00
  0.00000000E+00  0.00000000E+00  0.00000000E+00
  0.00000000E+00  0.00000000E+00  0.00000000E+00
  0.00000000E+00  0.00000000E+00  0.00000000E+00
  0.00000000E+00  0.00000000E+00  0.00000000E+00
  0.00000000E+00  0.00000000E+00  0.00000000E+00
  0.00000000E+00  0.00000000E+00  0.00000000E+00
  0.00000000E+00  0.00000000E+00  0.00000000E+00
  0.00000000E+00  0.00000000E+00  0.00000000E+00
  0.00000000E+00  0.00000000E+00  0.00000000E+00
  0.00000000E+00  0.00000000E+00  0.00000000E+00
  0.00000000E+00  0.00000000E+00  0.00000000E+00
  0.00000000E+00  0.00000000E+00  0.00000000E+00
  0.00000000E+00  0.00000000E+00  0.00000000E+00
  0.00000000E+00  0.00000000E+00  0.00000000E+00
  0.00000000E+00  0.00000000E+00  0.00000000E+00
  0.00000000E+00  0.00000000E+00  0.00000000E+00
  0.00000000E+00  0.00000000E+00  0.00000000E+00
  0.00000000E+00  0.00000000E+00  0.00000000E+00
  0.00000000E+00  0.00000000E+00  0.00000000E+00
  0.00000000E+00  0.00000000E+00  0.00000000E+00
  0.00000000E+00  0.00000000E+00  0.00000000E+00
  0.00000000E+00  0.00000000E+00  0.00000000E+00
  0.00000000E+00  0.00000000E+00  0.00000000E+00
  0.00000000E+00  0.00000000E+00  0.00000000E+00
  0.00000000E+00  0.00000000E+00  0.00000000E+00
  0.00000000E+00  0.00000000E+00  0.00000000E+00
  0.00000000E+00  0.00000000E+00  0.00000000E+00
  0.00000000E+00  0.00000000E+00  0.00000000E+00
  0.00000000E+00  0.00000000E+00  0.00000000E+00
  0.00000000E+00  0.00000000E+00  0.00000000E+00
  0.00000000E+00  0.00000000E+00  0.00000000E+00
  0.00000000E+00  0.00000000E+00  0.00000000E+00
  0.00000000E+00  0.00000000E+00  0.00000000E+00
  0.00000000E+00  0.00000000E+00  0.00000000E+00
  0.00000000E+00  0.00000000E+00  0.00000000E+00
  0.00000000E+00  0.00000000E+00  0.00000000E+00
  0.00000000E+00  0.00000000E+00  0.00000000E+00
  0.00000000E+00  0.00000000E+00  0.00000000E+00
  0.00000000E+00  0.00000000E+00  0.00000000E+00
  0.00000000E+00  0.00000000E+00  0.00000000E+00
  0.00000000E+00  0.00000000E+00  0.00000000E+00
  0.00000000E+00  0.00000000E+00  0.00000000E+00
  0.00000000E+00  0.00000000E+00  0.00000000E+00
  0.00000000E+00  0.00000000E+00  0.00000000E+00
  0.00000000E+00  0.00000000E+00  0.00000000E+00
  0.00000000E+00  0.00000000E+00  0.00000000E+00
  0.00000000E+00  0.00000000E+00  0.00000000E+00
  0.00000000E+00  0.00000000E+00  0.00000000E+00
  0.00000000E+00  0.00000000E+00  0.00000000E+00
  0.00000000E+00  0.00000000E+00  0.00000000E+00
  0.00000000E+00  0.00000000E+00  0.00000000E+00
  0.00000000E+00  0.00000000E+00  0.00000000E+00
  0.00000000E+00  0.00000000E+00  0.00000000E+00
  0.00000000E+00  0.00000000E+00  0.00000000E+00
  0.00000000E+00  0.00000000E+00  0.00000000E+00
  0.00000000E+00  0.00000000E+00  0.00000000E+00
  0.00000000E+00  0.00000000E+00  0.00000000E+00
  0.00000000E+00  0.00000000E+00  0.00000000E+00
  0.00000000E+00  0.00000000E+00  0.00000000E+00
  0.00000000E+00  0.00000000E+00  0.00000000E+00
  0.00000000E+00  0.00000000E+00  0.00000000E+00
  0.00000000E+00  0.00000000E+00  0.00000000E+00
  0.00000000E+00  0.00000000E+00  0.00000000E+00
  0.00000000E+00  0.00000000E+00  0.00000000E+00
  0.00000000E+00  0.00000000E+00  0.00000000E+00
  0.00000000E+00  0.00000000E+00  0.00000000E+00
  0.00000000E+00  0.00000000E+00  0.00000000E+00
  0.00000000E+00  0.00000000E+00  0.00000000E+00
  0.00000000E+00  0.00000000E+00  0.00000000E+00
  0.00000000E+00  0.00000000E+00  0.00000000E+00
  0.00000000E+00  0.00000000E+00  0.00000000E+00
  0.00000000E+00  0.00000000E+00  0.00000000E+00
  0.00000000E+00  0.00000000E+00  0.00000000E+00
  0.00000000E+00  0.00000000E+00  0.00000000E+00
  0.00000000E+00  0.00000000E+00  0.00000000E+00
  0.00000000E+00  0.00000000E+00  0.00000000E+00
  0.00000000E+00  0.00000000E+00  0.00000000E+00
  0.00000000E+00  0.00000000E+00  0.00000000E+00
  0.00000000E+00  0.00000000E+00  0.00000000E+00
  0.00000000E+00  0.00000000E+00  0.00000000E+00
  0.00000000E+00  0.00000000E+00  0.00000000E+00
  0.00000000E+00  0.00000000E+00  0.00000000E+00
  0.00000000E+00  0.00000000E+00  0.00000000E+00
  0.00000000E+00  0.00000000E+00  0.00000000E+00
  0.00000000E+00  0.00000000E+00  0.00000000E+00
  0.00000000E+00  0.00000000E+00  0.00000000E+00
  0.00000000E+00  0.00000000E+00  0.00000000E+00
  0.00000000E+00  0.00000000E+00  0.00000000E+00
  0.00000000E+00  0.00000000E+00  0.00000000E+00
  0.00000000E+00  0.00000000E+00  0.00000000E+00
  0.00000000E+00  0.00000000E+00  0.00000000E+00
  0.00000000E+00  0.00000000E+00  0.00000000E+00
  0.00000000E+00  0.00000000E+00  0.00000000E+00
  0.00000000E+00  0.00000000E+00  0.00000000E+00
  0.00000000E+00  0.00000000E+00  0.00000000E+00
  0.00000000E+00  0.00000000E+00  0.00000000E+00
  0.00000000E+00  0.00000000E+00  0.00000000E+00
  0.00000000E+00  0.00000000E+00  0.00000000E+00
  0.00000000E+00  0.00000000E+00  0.00000000E+00
  0.00000000E+00  0.00000000E+00  0.00000000E+00
  0.00000000E+00  0.00000000E+00  0.00000000E+00
  0.00000000E+00  0.00000000E+00  0.00000000E+00
  0.00000000E+00  0.00000000E+00  0.00000000E+00
  0.00000000E+00  0.00000000E+00  0.00000000E+00
  0.00000000E+00  0.00000000E+00  0.00000000E+00
  0.00000000E+00  0.00000000E+00  0.00000000E+00
  0.00000000E+00  0.00000000E+00  0.00000000E+00
  0.00000000E+00  0.00000000E+00  0.00000000E+00
  0.00000000E+00  0.00000000E+00  0.00000000E+00
  0.00000000E+00  0.00000000E+00  0.00000000E+00
  0.00000000E+00  0.00000000E+00  0.00000000E+00
  0.00000000E+00  0.00000000E+00  0.00000000E+00
  0.00000000E+00  0.00000000E+00  0.00000000E+00
  0.00000000E+00  0.00000000E+00  0.00000000E+00
  0.00000000E+00  0.00000000E+00  0.00000000E+00
  0.00000000E+00  0.00000000E+00  0.00000000E+00
  0.00000000E+00  0.00000000E+00  0.00000000E+00
  0.00000000E+00  0.00000000E+00  0.00000000E+00
  0.00000000E+00  0.00000000E+00  0.00000000E+00
  0.00000000E+00  0.00000000E+00  0.00000000E+00
  0.00000000E+00  0.00000000E+00  0.00000000E+00
  0.00000000E+00  0.00000000E+00  0.00000000E+00
  0.00000000E+00  0.00000000E+00  0.00000000E+00
  0.00000000E+00  0.00000000E+00  0.00000000E+00
  0.00000000E+00  0.00000000E+00  0.00000000E+00
  0.00000000E+00  0.00000000E+00  0.00000000E+00
  0.00000000E+00  0.00000000E+00  0.00000000E+00
  0.00000000E+00  0.00000000E+00  0.00000000E+00
  0.00000000E+00  0.00000000E+00  0.00000000E+00
  0.00000000E+00  0.00000000E+00  0.00000000E+00
  0.00000000E+00  0.00000000E+00  0.00000000E+00
  0.00000000E+00  0.00000000E+00  0.00000000E+00
  0.00000000E+00  0.00000000E+00  0.00000000E+00
  0.00000000E+00  0.00000000E+00  0.00000000E+00
  0.00000000E+00  0.00000000E+00  0.00000000E+00
  0.00000000E+00  0.00000000E+00  0.00000000E+00
  0.00000000E+00  0.00000000E+00  0.00000000E+00
  0.00000000E+00  0.00000000E+00  0.00000000E+00
  0.00000000E+00  0.00000000E+00  0.00000000E+00
  0.00000000E+00  0.00000000E+00  0.00000000E+00
  0.00000000E+00  0.00000000E+00  0.00000000E+00
  0.00000000E+00  0.00000000E+00  0.00000000E+00
  0.00000000E+00  0.00000000E+00  0.00000000E+00
  0.00000000E+00  0.00000000E+00  0.00000000E+00
  0.00000000E+00  0.00000000E+00  0.00000000E+00
  0.00000000E+00  0.00000000E+00  0.00000000E+00
  0.00000000E+00  0.00000000E+00  0.00000000E+00
  0.00000000E+00  0.00000000E+00  0.00000000E+00
  0.00000000E+00  0.00000000E+00  0.00000000E+00
  0.00000000E+00  0.00000000E+00  0.00000000E+00
  0.00000000E+00  0.00000000E+00  0.00000000E+00
  0.00000000E+00  0.00000000E+00  0.00000000E+00
  0.00000000E+00  0.00000000E+00  0.00000000E+00
  0.00000000E+00  0.00000000E+00  0.00000000E+00
  0.00000000E+00  0.00000000E+00  0.00000000E+00
