Li95 Ta32 O128                          
   1.00000000000000     
    11.3805060000000005    0.0067560000000000   -3.8448400000000000
     1.3117719999999999   11.3046539999999993    3.8448410000000002
    -0.0280210000000000    0.0314430000000000   18.5912410000000001
   Li   Ta   O 
    95    32   128
Direct
  0.2840548491852743  0.0977749172707263  0.4430429444306156
  0.2841301214414216  0.0971877405942720  0.9430945855924904
  0.2841917219766898  0.5972412267549032  0.9429224955630247
  0.7840558850393577  0.0984747237071275  0.4432830361860809
  0.7840513784733076  0.0973460509289055  0.9428790268436558
  0.7838893151989907  0.5965618212854622  0.4428966917960508
  0.7842343237101801  0.5971179833350249  0.9432309807245574
  0.0972908273175008  0.2846965020523982  0.3075484328089573
  0.0969691264196726  0.2843753599278500  0.8066051812412169
  0.0981139033691676  0.7823905503446085  0.3079416279579448
  0.0972133124232712  0.7840680090634962  0.8067239551130925
  0.5979761244607289  0.2842706162695308  0.3071563518306988
  0.5978458266068998  0.2842324547350827  0.8068632363952375
  0.5985721175257552  0.7830035145519858  0.3080200930218808
  0.5970649846891973  0.7839814386568378  0.8066471190765938
  0.2162065688305717  0.4026129466525177  0.0576103168728750
  0.2161275542652419  0.4083172512300592  0.5529267081881315
  0.2161943653237230  0.9026396236266550  0.0574215362423587
  0.2153932770706461  0.9007679782761571  0.5557038912395313
  0.7166945521828225  0.4027269150795831  0.0579155871332162
  0.7145021394396238  0.4033806666496815  0.5566263762828711
  0.7160710805292325  0.9025213601526829  0.0574694122067356
  0.7157814655522756  0.9024283222092464  0.5567078032647359
  0.4027966938285559  0.2159135742470752  0.1935756692418238
  0.4031598343987497  0.2169081337963661  0.6922182915515336
  0.4031080935056082  0.7152953916421438  0.1935668872528282
  0.4029824700199356  0.7149407924906583  0.6925986402081037
  0.9032109402504744  0.2160847403773403  0.1936796367584748
  0.9013981255254322  0.2166540362420122  0.6921747926443231
  0.9033565050455508  0.7154793609284127  0.1934531087753300
  0.9020335299845357  0.7159790409127140  0.6924972368151856
  0.1777493257389935  0.2193267320996526  0.1880174971807449
  0.1784650961784706  0.2206270256716678  0.6871689394079254
  0.1782200973673511  0.7190003679835257  0.1864218525257897
  0.1787932502551755  0.7183581021490610  0.6871273555193014
  0.6783413146826476  0.2200162520811375  0.1874175949465027
  0.6742962996470467  0.2225952877298241  0.6868691706450392
  0.6781691971097530  0.7191167630006134  0.1874910491300739
  0.6771763147057399  0.7191083673811818  0.6870991356619029
  0.2195828321205724  0.1781770896136123  0.0628670907320128
  0.2188235961504148  0.1806983504625066  0.5622929749574013
  0.2197305863493497  0.6778662616111006  0.0623709520431817
  0.2210766304376435  0.6736024509458147  0.5618713164620743
  0.7198449660313528  0.1783477524978494  0.0626192409136337
  0.7182184763139361  0.1795054449514026  0.5631695912073980
  0.7196339786249482  0.6780216499042240  0.0627201088676657
  0.7182835173558928  0.6765543047836573  0.5618373458735775
  0.3220850483987689  0.2812232352178867  0.3127966174808492
  0.3213715311387304  0.2798256377217214  0.8130353712405523
  0.3195954277150364  0.7764175708134644  0.3133131987067159
  0.3222323421331126  0.7804670504622919  0.8123767695842687
  0.8227083867393574  0.2813516493189283  0.3123877379306137
  0.8219719320829526  0.2806553188257581  0.8125306311794560
  0.8229776760704937  0.7788883601197085  0.3129819551174720
  0.8216480738928311  0.7802644336937163  0.8125163986686701
  0.2798537198853666  0.3228051570119419  0.4370077293747840
  0.2804743928579327  0.3218942102165840  0.9375971560443261
  0.2804779812352933  0.8052686030783178  0.4375817943261708
  0.2806726978250964  0.8218503332817306  0.9373734364844282
  0.7803274698950915  0.3247465862142747  0.4375859372758981
  0.7810329421722386  0.3217688735940030  0.9376716540660013
  0.7807134373344979  0.8186585493533016  0.4374261784139435
  0.7803554546546110  0.8218592828397178  0.9374489080450275
  0.0265111819461481  0.3490250970692088  0.4307068925878923
  0.0290340059485672  0.3479863399396592  0.9321811508795292
  0.0267348453721112  0.8468298597606037  0.4318623961387686
  0.0286972939229955  0.8478047469335692  0.9319805845293487
  0.5306311814173625  0.3483308682764346  0.4330939527780586
  0.5295327695892453  0.3478607839251922  0.9322303127490699
  0.5307709857766483  0.8468526168583423  0.4318161075786549
  0.5287806970036826  0.8476530101202542  0.9319932935546831
  0.3485326976125336  0.0270496891052119  0.3194620275514026
  0.3476281068459031  0.0289641367109965  0.8175556679934814
  0.3476501608722273  0.5286478545057420  0.3198132158033076
  0.3480700068722271  0.5290372253370563  0.8177581267658596
  0.8481028713078018  0.0290623530836740  0.3183748763538929
  0.8472000776524524  0.0296435283772780  0.8175005068572503
  0.8481934078331648  0.5290113946655310  0.3184434425516542
  0.8479503474372265  0.5289854222615133  0.8178848975853867
  0.4714865836352331  0.1521107535914226  0.0683620478860547
  0.4716496271866006  0.1546185186072222  0.5678993610107668
  0.4715391399650741  0.6518035443744026  0.0685011479138709
  0.4667939784311557  0.6514717520777111  0.5656134488208977
  0.9717073954177167  0.1523598038587934  0.0684583120032016
  0.9705438964634681  0.1527499243857235  0.5680375127516086
  0.9714655458425980  0.6517167995887903  0.0686626549593541
  0.9703338877508898  0.6523579335901957  0.5668601251048813
  0.1524023449187979  0.4712900488106229  0.1829856326545070
  0.1526632800089445  0.4709928206947396  0.6816675837543897
  0.1526485884363780  0.9705706167551114  0.1827047408988207
  0.1519228484850359  0.9714288987606068  0.6813944184521361
  0.6526708512225241  0.4708355999444223  0.1824546268620111
  0.6511247118016215  0.4716266530221347  0.6811649021574908
  0.6526363543118308  0.9708701172386114  0.1824090813877319
  0.6514285713271875  0.9715100083156401  0.6811624473525058
  0.3897948266111513  0.4691552503080416  0.1878028270313479
  0.3906107302585511  0.4667188169880276  0.6888441773087095
  0.3898532250123452  0.9688983927806234  0.1880306730996466
  0.3890967575584767  0.9688579178757877  0.6869090985728974
  0.8900325619298997  0.4693215291729942  0.1882055073158213
  0.8896054519237424  0.4688094376603260  0.6876426580173103
  0.8896114426101889  0.9693839770294659  0.1877548903470441
  0.8888933115638480  0.9690486909169564  0.6875230602184246
  0.4689220396085432  0.3893894401077134  0.0624491264089286
  0.4658597289015844  0.3935735233450472  0.5601194769285271
  0.4689261480742957  0.8894311455391488  0.0625486380198410
  0.4683208762732107  0.8892353340862869  0.5613781183747903
  0.9690204367168889  0.3895792635523705  0.0627084563498528
  0.9685327448538814  0.3898169917823395  0.5618166089178800
  0.9687994504883619  0.8896758387852159  0.0624662158191001
  0.9687904395191254  0.8892609214040874  0.5624212095849757
  0.1111889748804558  0.0298626048708286  0.3134840234971676
  0.1103242478484461  0.0310457673982398  0.8122314868744311
  0.1124069274774726  0.5328166170517790  0.3136848844920976
  0.1106815976058613  0.5310573572136761  0.8123728857608512
  0.6112276825117959  0.0313223869499879  0.3125749648475491
  0.6102270645274359  0.0308919508886163  0.8122179078040190
  0.6111233498241475  0.5306675924527440  0.3129108762679067
  0.6112101599739717  0.5307154455719427  0.8127082328756003
  0.0308500867928814  0.1109836688451864  0.4377944388070745
  0.0311451137434275  0.1106034269583560  0.9376325527887772
  0.0334969171736361  0.6112015089974108  0.4375617636480058
  0.0311427042154762  0.6105043842317954  0.9377059114582948
  0.5313318736678951  0.1112578326395379  0.4378112316869078
  0.5311683995042458  0.1104183111661996  0.9376462231145410
  0.5280657088048883  0.6118284957648328  0.4368131809271816
  0.5313422604501241  0.6104815402479247  0.9377558352057918
  0.3554362208555730  0.0211201178185760  0.0687418376023672
  0.3548759583618519  0.0208128948852604  0.5682716834564800
  0.3551279960958524  0.5207090668843506  0.0684541159389624
  0.3569674970108565  0.5192220127719693  0.5718282416772311
  0.8551417935105476  0.0215311304913115  0.0684798395617960
  0.8546720500463607  0.0209326207165148  0.5688641423534833
  0.8555785513058822  0.5208812704109107  0.0684732393544820
  0.8550784927023329  0.5211213579485729  0.5691118050574602
  0.0213977331961956  0.3544166547856307  0.1814515969901507
  0.0210540793636582  0.3556044549209716  0.6816201690649422
  0.0206130214529736  0.8557930488071079  0.1810531617712599
  0.0205962280551901  0.8552040663300460  0.6815170338513710
  0.5210992823223322  0.3546076771000912  0.1811932753844232
  0.5218073156857344  0.3540097828026134  0.6819593213775690
  0.5212048435369923  0.8551682094380624  0.1813427036697561
  0.5205898074023168  0.8552178206099370  0.6807901524846542
  0.1375975997305758  0.4761777298704573  0.4302414750061843
  0.1451794989642465  0.4791397616595887  0.9314882401638016
  0.1440145677302738  0.9801294988720457  0.4316541672509899
  0.1448389277655693  0.9790358368225540  0.9313541707241697
  0.6477691770760288  0.4782889226264615  0.4309014626131642
  0.6456185196179263  0.4793113358825920  0.9319454622370529
  0.6454951809678704  0.9796619078135222  0.4313529808352783
  0.6447754842811264  0.9786741183009156  0.9313567317349580
  0.4796592689262980  0.1454089289328451  0.3187453226446451
  0.4789896939077423  0.1444665514327781  0.8188210748290601
  0.4787984044885789  0.6447576556695083  0.3179786898019969
  0.4794673408062735  0.6450992922614063  0.8189046194228879
  0.9787256793296564  0.1451970539291523  0.3188404178255482
  0.9789940351712190  0.1451021840070368  0.8186959607633071
  0.9789403171670372  0.6464658501848959  0.3179668332699208
  0.9792019850827174  0.6450633386046221  0.8187415864123508
  0.2121754461416785  0.1505181578783308  0.3095403920220718
  0.2119021005887660  0.1510436524560106  0.8092325260547071
  0.2092268963429902  0.6538577748939858  0.3035594263083254
  0.2121963562206659  0.6512232053226228  0.8092253693764846
  0.7124679041205297  0.1516350653906642  0.3089516883165473
  0.7119148736999534  0.1508937100583623  0.8093861573002741
  0.7116523597836419  0.6515216857432335  0.3078349783782741
  0.7124859907989674  0.6512866346844106  0.8094700745282992
  0.1510187701074415  0.2121483140099301  0.4410220264099891
  0.1513813591142821  0.2119022196227860  0.9410783197615089
  0.1437889846498379  0.7190226151965646  0.4402608505206373
  0.1513146999117367  0.7120704889029383  0.9409408991730146
  0.6516856568628384  0.2126092443238932  0.4413477330221340
  0.6515118880255102  0.2115904720889361  0.9411349480457503
  0.6526257725529945  0.7099688788395184  0.4403965862636952
  0.6513062730928922  0.7121801588930410  0.9411876088592948
  0.2882120533245995  0.3487085689549332  0.1910045252913122
  0.2887070454043794  0.3472362459434137  0.6927601005500534
  0.2882578480692288  0.8491316955096195  0.1905946765634354
  0.2880021844969889  0.8485396315864406  0.6908643923064659
  0.7879845376788310  0.3489090888771571  0.1902365564478430
  0.7879184684007683  0.3490344426165137  0.6913378722833130
  0.7880518848826839  0.8492699964936179  0.1906317120126175
  0.7878130218285264  0.8486968806721151  0.6911547303682894
  0.3487648276066722  0.2879329963024659  0.0589497675991737
  0.3472290400343283  0.2900495716385905  0.5579315381420926
  0.3486869683403953  0.7881807269451286  0.0589225792048325
  0.3488831936141139  0.7870596483648171  0.5585424289357803
  0.8490756260594594  0.2879537779958099  0.0589361837727225
  0.8488728992201757  0.2875424006293557  0.5602451304059173
  0.8486998722376455  0.7882651584637870  0.0589894647124183
  0.8485692133068170  0.7878972914628974  0.5591112341911355
  0.0899171380947124  0.2852119730518012  0.0659998752858044
  0.0894054908735171  0.2848301470358336  0.5663920635575153
  0.0895380796845160  0.7854117878868294  0.0657105874628385
  0.0895725939049328  0.7847269663876446  0.5666057752266909
  0.5896956833492553  0.2851645687456212  0.0656783296139523
  0.5888086302764677  0.2862728216941477  0.5670258460726103
  0.5897133161115207  0.7851824060944566  0.0659398092899508
  0.5903976924315728  0.7858758103491112  0.5659076624419939
  0.2851855102041014  0.0897024141306701  0.1841436375048957
  0.2851151732972141  0.0897439056988034  0.6837664402458259
  0.2848203731653882  0.5900017472539005  0.1830823425147656
  0.2862936455037897  0.5883941169634994  0.6853538569872413
  0.7848763072911566  0.0902635083394188  0.1836922311826683
  0.7848064820370908  0.0896513570627278  0.6844262626108630
  0.7846023969263314  0.5900796977320937  0.1835872230068247
  0.7854297177759548  0.5898345167304129  0.6842983553523538
  0.4102251358937323  0.2151948475034118  0.4340863093331819
  0.4102782576193391  0.2145862791972419  0.9341716039950612
  0.4163645193780141  0.7223883752633355  0.4326992545375603
  0.4103421066010569  0.7149918432800888  0.9340396054492714
  0.9097245966517988  0.2151303088165832  0.4342514243216300
  0.9103955063632583  0.2149733624161456  0.9340618679183379
  0.9084695697786671  0.7123612274157409  0.4340483989332640
  0.9103752075276219  0.7150391559976512  0.9340612771180545
  0.2151612934949725  0.4106909235404714  0.3163702181949475
  0.2151243135356609  0.4099481786639743  0.8164611082153357
  0.2145816249540360  0.9091905099425048  0.3162790609185251
  0.2149214091981548  0.9102880361050296  0.8159590125856724
  0.7147049194226724  0.4103071569842456  0.3149719370043300
  0.7160621868157193  0.4101082767809601  0.8166111174653921
  0.7153098311847401  0.9105085958481212  0.3158761957008451
  0.7147512957023849  0.9100517171096740  0.8160451785914873
  0.4744739525342041  0.4156432020319158  0.3061404748559582
  0.4764287079788971  0.4152675872492040  0.8080703510447691
  0.4750713030266951  0.9171097834097708  0.3062150097435747
  0.4739367534883314  0.9160009839245120  0.8060750166169797
  0.9727850148685135  0.4153570676814269  0.3059782865126053
  0.9745145503553587  0.4162086813239796  0.8067179310714607
  0.9732282592729931  0.9170572624152697  0.3063013401865291
  0.9740942074214871  0.9162246857053020  0.8065132499471588
  0.4230396660553879  0.4707464238648171  0.4427491053053885
  0.4162618481593654  0.4743030593157656  0.9435841957358804
  0.4171430038461139  0.9756430614569709  0.4434705267856387
  0.4160532086982229  0.9741043105352816  0.9436531980489562
  0.9136123953256003  0.4728124270956968  0.4440857245524583
  0.9165804087187510  0.4742203561715783  0.9436555012610057
  0.9159343721246742  0.9741826557108837  0.4438063681837008
  0.9160092133072624  0.9744462847706643  0.9435851336231380
  0.0262691132572428  0.0837171980201532  0.1941054512365099
  0.0256461891991506  0.0837908150497881  0.6937252576686035
  0.0250172920181413  0.5826399334976315  0.1936997416840285
  0.0261590330315897  0.5840842085290348  0.6938504349689225
  0.5262749607559485  0.0842880826646066  0.1935452437269376
  0.5256490069324329  0.0839253209542647  0.6935576546173436
  0.5253609291154788  0.5836341955023414  0.1932037133157465
  0.5267562935101751  0.5838370366906176  0.6945031106153934
  0.0840607352745550  0.0259368646091644  0.0563973789061407
  0.0831952609629454  0.0259587670304740  0.5565810686256683
  0.0842272670857440  0.5259632727168153  0.0564271887444647
  0.0846451468306100  0.5257781091242251  0.5563773064477502
  0.5840571473119809  0.0256847100244784  0.0563853160895675
  0.5840719870378948  0.0263668530851007  0.5564769990660139
  0.5838515093164673  0.5258558895301917  0.0564958981415984
  0.5826361994775979  0.5280506341802607  0.5561519798969954
 
  0.00000000E+00  0.00000000E+00  0.00000000E+00
  0.00000000E+00  0.00000000E+00  0.00000000E+00
  0.00000000E+00  0.00000000E+00  0.00000000E+00
  0.00000000E+00  0.00000000E+00  0.00000000E+00
  0.00000000E+00  0.00000000E+00  0.00000000E+00
  0.00000000E+00  0.00000000E+00  0.00000000E+00
  0.00000000E+00  0.00000000E+00  0.00000000E+00
  0.00000000E+00  0.00000000E+00  0.00000000E+00
  0.00000000E+00  0.00000000E+00  0.00000000E+00
  0.00000000E+00  0.00000000E+00  0.00000000E+00
  0.00000000E+00  0.00000000E+00  0.00000000E+00
  0.00000000E+00  0.00000000E+00  0.00000000E+00
  0.00000000E+00  0.00000000E+00  0.00000000E+00
  0.00000000E+00  0.00000000E+00  0.00000000E+00
  0.00000000E+00  0.00000000E+00  0.00000000E+00
  0.00000000E+00  0.00000000E+00  0.00000000E+00
  0.00000000E+00  0.00000000E+00  0.00000000E+00
  0.00000000E+00  0.00000000E+00  0.00000000E+00
  0.00000000E+00  0.00000000E+00  0.00000000E+00
  0.00000000E+00  0.00000000E+00  0.00000000E+00
  0.00000000E+00  0.00000000E+00  0.00000000E+00
  0.00000000E+00  0.00000000E+00  0.00000000E+00
  0.00000000E+00  0.00000000E+00  0.00000000E+00
  0.00000000E+00  0.00000000E+00  0.00000000E+00
  0.00000000E+00  0.00000000E+00  0.00000000E+00
  0.00000000E+00  0.00000000E+00  0.00000000E+00
  0.00000000E+00  0.00000000E+00  0.00000000E+00
  0.00000000E+00  0.00000000E+00  0.00000000E+00
  0.00000000E+00  0.00000000E+00  0.00000000E+00
  0.00000000E+00  0.00000000E+00  0.00000000E+00
  0.00000000E+00  0.00000000E+00  0.00000000E+00
  0.00000000E+00  0.00000000E+00  0.00000000E+00
  0.00000000E+00  0.00000000E+00  0.00000000E+00
  0.00000000E+00  0.00000000E+00  0.00000000E+00
  0.00000000E+00  0.00000000E+00  0.00000000E+00
  0.00000000E+00  0.00000000E+00  0.00000000E+00
  0.00000000E+00  0.00000000E+00  0.00000000E+00
  0.00000000E+00  0.00000000E+00  0.00000000E+00
  0.00000000E+00  0.00000000E+00  0.00000000E+00
  0.00000000E+00  0.00000000E+00  0.00000000E+00
  0.00000000E+00  0.00000000E+00  0.00000000E+00
  0.00000000E+00  0.00000000E+00  0.00000000E+00
  0.00000000E+00  0.00000000E+00  0.00000000E+00
  0.00000000E+00  0.00000000E+00  0.00000000E+00
  0.00000000E+00  0.00000000E+00  0.00000000E+00
  0.00000000E+00  0.00000000E+00  0.00000000E+00
  0.00000000E+00  0.00000000E+00  0.00000000E+00
  0.00000000E+00  0.00000000E+00  0.00000000E+00
  0.00000000E+00  0.00000000E+00  0.00000000E+00
  0.00000000E+00  0.00000000E+00  0.00000000E+00
  0.00000000E+00  0.00000000E+00  0.00000000E+00
  0.00000000E+00  0.00000000E+00  0.00000000E+00
  0.00000000E+00  0.00000000E+00  0.00000000E+00
  0.00000000E+00  0.00000000E+00  0.00000000E+00
  0.00000000E+00  0.00000000E+00  0.00000000E+00
  0.00000000E+00  0.00000000E+00  0.00000000E+00
  0.00000000E+00  0.00000000E+00  0.00000000E+00
  0.00000000E+00  0.00000000E+00  0.00000000E+00
  0.00000000E+00  0.00000000E+00  0.00000000E+00
  0.00000000E+00  0.00000000E+00  0.00000000E+00
  0.00000000E+00  0.00000000E+00  0.00000000E+00
  0.00000000E+00  0.00000000E+00  0.00000000E+00
  0.00000000E+00  0.00000000E+00  0.00000000E+00
  0.00000000E+00  0.00000000E+00  0.00000000E+00
  0.00000000E+00  0.00000000E+00  0.00000000E+00
  0.00000000E+00  0.00000000E+00  0.00000000E+00
  0.00000000E+00  0.00000000E+00  0.00000000E+00
  0.00000000E+00  0.00000000E+00  0.00000000E+00
  0.00000000E+00  0.00000000E+00  0.00000000E+00
  0.00000000E+00  0.00000000E+00  0.00000000E+00
  0.00000000E+00  0.00000000E+00  0.00000000E+00
  0.00000000E+00  0.00000000E+00  0.00000000E+00
  0.00000000E+00  0.00000000E+00  0.00000000E+00
  0.00000000E+00  0.00000000E+00  0.00000000E+00
  0.00000000E+00  0.00000000E+00  0.00000000E+00
  0.00000000E+00  0.00000000E+00  0.00000000E+00
  0.00000000E+00  0.00000000E+00  0.00000000E+00
  0.00000000E+00  0.00000000E+00  0.00000000E+00
  0.00000000E+00  0.00000000E+00  0.00000000E+00
  0.00000000E+00  0.00000000E+00  0.00000000E+00
  0.00000000E+00  0.00000000E+00  0.00000000E+00
  0.00000000E+00  0.00000000E+00  0.00000000E+00
  0.00000000E+00  0.00000000E+00  0.00000000E+00
  0.00000000E+00  0.00000000E+00  0.00000000E+00
  0.00000000E+00  0.00000000E+00  0.00000000E+00
  0.00000000E+00  0.00000000E+00  0.00000000E+00
  0.00000000E+00  0.00000000E+00  0.00000000E+00
  0.00000000E+00  0.00000000E+00  0.00000000E+00
  0.00000000E+00  0.00000000E+00  0.00000000E+00
  0.00000000E+00  0.00000000E+00  0.00000000E+00
  0.00000000E+00  0.00000000E+00  0.00000000E+00
  0.00000000E+00  0.00000000E+00  0.00000000E+00
  0.00000000E+00  0.00000000E+00  0.00000000E+00
  0.00000000E+00  0.00000000E+00  0.00000000E+00
  0.00000000E+00  0.00000000E+00  0.00000000E+00
  0.00000000E+00  0.00000000E+00  0.00000000E+00
  0.00000000E+00  0.00000000E+00  0.00000000E+00
  0.00000000E+00  0.00000000E+00  0.00000000E+00
  0.00000000E+00  0.00000000E+00  0.00000000E+00
  0.00000000E+00  0.00000000E+00  0.00000000E+00
  0.00000000E+00  0.00000000E+00  0.00000000E+00
  0.00000000E+00  0.00000000E+00  0.00000000E+00
  0.00000000E+00  0.00000000E+00  0.00000000E+00
  0.00000000E+00  0.00000000E+00  0.00000000E+00
  0.00000000E+00  0.00000000E+00  0.00000000E+00
  0.00000000E+00  0.00000000E+00  0.00000000E+00
  0.00000000E+00  0.00000000E+00  0.00000000E+00
  0.00000000E+00  0.00000000E+00  0.00000000E+00
  0.00000000E+00  0.00000000E+00  0.00000000E+00
  0.00000000E+00  0.00000000E+00  0.00000000E+00
  0.00000000E+00  0.00000000E+00  0.00000000E+00
  0.00000000E+00  0.00000000E+00  0.00000000E+00
  0.00000000E+00  0.00000000E+00  0.00000000E+00
  0.00000000E+00  0.00000000E+00  0.00000000E+00
  0.00000000E+00  0.00000000E+00  0.00000000E+00
  0.00000000E+00  0.00000000E+00  0.00000000E+00
  0.00000000E+00  0.00000000E+00  0.00000000E+00
  0.00000000E+00  0.00000000E+00  0.00000000E+00
  0.00000000E+00  0.00000000E+00  0.00000000E+00
  0.00000000E+00  0.00000000E+00  0.00000000E+00
  0.00000000E+00  0.00000000E+00  0.00000000E+00
  0.00000000E+00  0.00000000E+00  0.00000000E+00
  0.00000000E+00  0.00000000E+00  0.00000000E+00
  0.00000000E+00  0.00000000E+00  0.00000000E+00
  0.00000000E+00  0.00000000E+00  0.00000000E+00
  0.00000000E+00  0.00000000E+00  0.00000000E+00
  0.00000000E+00  0.00000000E+00  0.00000000E+00
  0.00000000E+00  0.00000000E+00  0.00000000E+00
  0.00000000E+00  0.00000000E+00  0.00000000E+00
  0.00000000E+00  0.00000000E+00  0.00000000E+00
  0.00000000E+00  0.00000000E+00  0.00000000E+00
  0.00000000E+00  0.00000000E+00  0.00000000E+00
  0.00000000E+00  0.00000000E+00  0.00000000E+00
  0.00000000E+00  0.00000000E+00  0.00000000E+00
  0.00000000E+00  0.00000000E+00  0.00000000E+00
  0.00000000E+00  0.00000000E+00  0.00000000E+00
  0.00000000E+00  0.00000000E+00  0.00000000E+00
  0.00000000E+00  0.00000000E+00  0.00000000E+00
  0.00000000E+00  0.00000000E+00  0.00000000E+00
  0.00000000E+00  0.00000000E+00  0.00000000E+00
  0.00000000E+00  0.00000000E+00  0.00000000E+00
  0.00000000E+00  0.00000000E+00  0.00000000E+00
  0.00000000E+00  0.00000000E+00  0.00000000E+00
  0.00000000E+00  0.00000000E+00  0.00000000E+00
  0.00000000E+00  0.00000000E+00  0.00000000E+00
  0.00000000E+00  0.00000000E+00  0.00000000E+00
  0.00000000E+00  0.00000000E+00  0.00000000E+00
  0.00000000E+00  0.00000000E+00  0.00000000E+00
  0.00000000E+00  0.00000000E+00  0.00000000E+00
  0.00000000E+00  0.00000000E+00  0.00000000E+00
  0.00000000E+00  0.00000000E+00  0.00000000E+00
  0.00000000E+00  0.00000000E+00  0.00000000E+00
  0.00000000E+00  0.00000000E+00  0.00000000E+00
  0.00000000E+00  0.00000000E+00  0.00000000E+00
  0.00000000E+00  0.00000000E+00  0.00000000E+00
  0.00000000E+00  0.00000000E+00  0.00000000E+00
  0.00000000E+00  0.00000000E+00  0.00000000E+00
  0.00000000E+00  0.00000000E+00  0.00000000E+00
  0.00000000E+00  0.00000000E+00  0.00000000E+00
  0.00000000E+00  0.00000000E+00  0.00000000E+00
  0.00000000E+00  0.00000000E+00  0.00000000E+00
  0.00000000E+00  0.00000000E+00  0.00000000E+00
  0.00000000E+00  0.00000000E+00  0.00000000E+00
  0.00000000E+00  0.00000000E+00  0.00000000E+00
  0.00000000E+00  0.00000000E+00  0.00000000E+00
  0.00000000E+00  0.00000000E+00  0.00000000E+00
  0.00000000E+00  0.00000000E+00  0.00000000E+00
  0.00000000E+00  0.00000000E+00  0.00000000E+00
  0.00000000E+00  0.00000000E+00  0.00000000E+00
  0.00000000E+00  0.00000000E+00  0.00000000E+00
  0.00000000E+00  0.00000000E+00  0.00000000E+00
  0.00000000E+00  0.00000000E+00  0.00000000E+00
  0.00000000E+00  0.00000000E+00  0.00000000E+00
  0.00000000E+00  0.00000000E+00  0.00000000E+00
  0.00000000E+00  0.00000000E+00  0.00000000E+00
  0.00000000E+00  0.00000000E+00  0.00000000E+00
  0.00000000E+00  0.00000000E+00  0.00000000E+00
  0.00000000E+00  0.00000000E+00  0.00000000E+00
  0.00000000E+00  0.00000000E+00  0.00000000E+00
  0.00000000E+00  0.00000000E+00  0.00000000E+00
  0.00000000E+00  0.00000000E+00  0.00000000E+00
  0.00000000E+00  0.00000000E+00  0.00000000E+00
  0.00000000E+00  0.00000000E+00  0.00000000E+00
  0.00000000E+00  0.00000000E+00  0.00000000E+00
  0.00000000E+00  0.00000000E+00  0.00000000E+00
  0.00000000E+00  0.00000000E+00  0.00000000E+00
  0.00000000E+00  0.00000000E+00  0.00000000E+00
  0.00000000E+00  0.00000000E+00  0.00000000E+00
  0.00000000E+00  0.00000000E+00  0.00000000E+00
  0.00000000E+00  0.00000000E+00  0.00000000E+00
  0.00000000E+00  0.00000000E+00  0.00000000E+00
  0.00000000E+00  0.00000000E+00  0.00000000E+00
  0.00000000E+00  0.00000000E+00  0.00000000E+00
  0.00000000E+00  0.00000000E+00  0.00000000E+00
  0.00000000E+00  0.00000000E+00  0.00000000E+00
  0.00000000E+00  0.00000000E+00  0.00000000E+00
  0.00000000E+00  0.00000000E+00  0.00000000E+00
  0.00000000E+00  0.00000000E+00  0.00000000E+00
  0.00000000E+00  0.00000000E+00  0.00000000E+00
  0.00000000E+00  0.00000000E+00  0.00000000E+00
  0.00000000E+00  0.00000000E+00  0.00000000E+00
  0.00000000E+00  0.00000000E+00  0.00000000E+00
  0.00000000E+00  0.00000000E+00  0.00000000E+00
  0.00000000E+00  0.00000000E+00  0.00000000E+00
  0.00000000E+00  0.00000000E+00  0.00000000E+00
  0.00000000E+00  0.00000000E+00  0.00000000E+00
  0.00000000E+00  0.00000000E+00  0.00000000E+00
  0.00000000E+00  0.00000000E+00  0.00000000E+00
  0.00000000E+00  0.00000000E+00  0.00000000E+00
  0.00000000E+00  0.00000000E+00  0.00000000E+00
  0.00000000E+00  0.00000000E+00  0.00000000E+00
  0.00000000E+00  0.00000000E+00  0.00000000E+00
  0.00000000E+00  0.00000000E+00  0.00000000E+00
  0.00000000E+00  0.00000000E+00  0.00000000E+00
  0.00000000E+00  0.00000000E+00  0.00000000E+00
  0.00000000E+00  0.00000000E+00  0.00000000E+00
  0.00000000E+00  0.00000000E+00  0.00000000E+00
  0.00000000E+00  0.00000000E+00  0.00000000E+00
  0.00000000E+00  0.00000000E+00  0.00000000E+00
  0.00000000E+00  0.00000000E+00  0.00000000E+00
  0.00000000E+00  0.00000000E+00  0.00000000E+00
  0.00000000E+00  0.00000000E+00  0.00000000E+00
  0.00000000E+00  0.00000000E+00  0.00000000E+00
  0.00000000E+00  0.00000000E+00  0.00000000E+00
  0.00000000E+00  0.00000000E+00  0.00000000E+00
  0.00000000E+00  0.00000000E+00  0.00000000E+00
  0.00000000E+00  0.00000000E+00  0.00000000E+00
  0.00000000E+00  0.00000000E+00  0.00000000E+00
  0.00000000E+00  0.00000000E+00  0.00000000E+00
  0.00000000E+00  0.00000000E+00  0.00000000E+00
  0.00000000E+00  0.00000000E+00  0.00000000E+00
  0.00000000E+00  0.00000000E+00  0.00000000E+00
  0.00000000E+00  0.00000000E+00  0.00000000E+00
  0.00000000E+00  0.00000000E+00  0.00000000E+00
  0.00000000E+00  0.00000000E+00  0.00000000E+00
  0.00000000E+00  0.00000000E+00  0.00000000E+00
  0.00000000E+00  0.00000000E+00  0.00000000E+00
  0.00000000E+00  0.00000000E+00  0.00000000E+00
  0.00000000E+00  0.00000000E+00  0.00000000E+00
  0.00000000E+00  0.00000000E+00  0.00000000E+00
  0.00000000E+00  0.00000000E+00  0.00000000E+00
  0.00000000E+00  0.00000000E+00  0.00000000E+00
  0.00000000E+00  0.00000000E+00  0.00000000E+00
  0.00000000E+00  0.00000000E+00  0.00000000E+00
  0.00000000E+00  0.00000000E+00  0.00000000E+00
  0.00000000E+00  0.00000000E+00  0.00000000E+00
  0.00000000E+00  0.00000000E+00  0.00000000E+00
  0.00000000E+00  0.00000000E+00  0.00000000E+00
  0.00000000E+00  0.00000000E+00  0.00000000E+00
  0.00000000E+00  0.00000000E+00  0.00000000E+00
  0.00000000E+00  0.00000000E+00  0.00000000E+00
  0.00000000E+00  0.00000000E+00  0.00000000E+00
  0.00000000E+00  0.00000000E+00  0.00000000E+00
  0.00000000E+00  0.00000000E+00  0.00000000E+00
  0.00000000E+00  0.00000000E+00  0.00000000E+00
