Li63 Ta64 O192                          
   1.00000000000000     
    15.0337320000000005   -0.0060940000000000   -0.0057460000000000
     0.9606630000000000   15.0030490000000007   -0.0057500000000000
     0.9606080000000000    0.9007180000000000   14.9759290000000007
   Li   Ta   O 
    63    64   192
Direct
  0.3875755955135816  0.3903557908584503  0.8884824467658703
  0.3877177466792858  0.8884848539269470  0.3887142514286950
  0.3896848333621818  0.8897571984470929  0.8896471203529046
  0.8891318946457716  0.3891901460536999  0.3926182628629604
  0.8901007446265012  0.3894609792634256  0.8897820634524010
  0.8897248015682635  0.8901164985785073  0.3899493289450930
  0.8901318208233846  0.8899448840179289  0.8894424253002384
  0.1373021254945144  0.3860381248628144  0.1349764133420948
  0.1396571913510556  0.3901873135468747  0.6383779459802810
  0.1398511676695549  0.8901914768292372  0.1396268427584033
  0.1396718271512896  0.8895798371259929  0.6399155561488001
  0.6423688149520856  0.3891571170438510  0.1397634204145746
  0.6399066479345805  0.3905990606508212  0.6401111810994280
  0.6409009632999982  0.8896985679358949  0.1394054662938444
  0.6397963557068067  0.8905093523046972  0.6399277200535280
  0.3870634562732107  0.1350705354426154  0.1378791725811297
  0.3882175290988883  0.1389077032383099  0.6409530788440279
  0.3897665490153628  0.6395911044674136  0.1403652043839969
  0.3896087111289575  0.6404799711798361  0.6397045305289879
  0.8907292695680411  0.1397145348083768  0.1399130266993112
  0.8898383750769412  0.1399831970279308  0.6401156618443693
  0.8904764721422467  0.6408439355138924  0.1391390042004801
  0.8896758313286881  0.6400751416755526  0.6399653798799818
  0.1399291680697701  0.1404856803006211  0.3911586377178651
  0.1400946757882764  0.1396569163016537  0.8899822814752198
  0.1404612376563890  0.6407360803880948  0.3920680617750349
  0.1393077197800707  0.6404182603268751  0.8898470496598492
  0.6398256901928221  0.1407539255576324  0.3902399832499128
  0.6410379152541168  0.1388415615260499  0.8901357575025060
  0.6407400600791036  0.6403147546312979  0.3905028393922123
  0.6398359948021906  0.6399307862773327  0.8902462328491936
  0.1404026166552939  0.1402635550129645  0.1399337222461625
  0.1399929219402622  0.1400958144253721  0.6397858138164239
  0.1376232293474402  0.6443435519105094  0.1368368173673673
  0.1396758285125230  0.6388008779194578  0.6378171405264226
  0.6441427057576590  0.1371713774556369  0.1380804290249245
  0.6414253801651952  0.1385670611845029  0.6404930059006517
  0.6405447919244409  0.6413561115269744  0.1389472079780205
  0.6398864108395657  0.6398324194632110  0.6400519522217962
  0.3876135350884198  0.1379255935248764  0.3865024676031439
  0.3879900666551066  0.1375038579653136  0.8891266988159501
  0.3895343839134995  0.6414208408797180  0.3896347422617339
  0.3896779151946532  0.6400564079361857  0.8906604674063345
  0.8899886013580129  0.1404811590200694  0.3900942006294628
  0.8903404514777193  0.1397964765380735  0.8894632581680781
  0.8897891052282745  0.6403902679534426  0.3907104339177963
  0.8898367083763361  0.6403628530225802  0.8893595869561608
  0.1411173822603189  0.3890161203119860  0.3926244461660460
  0.1391377161736571  0.3894161446715003  0.8894739870775297
  0.1399961477195575  0.8898922313903910  0.3903542393994073
  0.1396343165941332  0.8900734516015589  0.8897671577351716
  0.6415401438160941  0.3891793298857706  0.3910572194416204
  0.6410383337205232  0.3899018218702395  0.8893780299699330
  0.6403229317580923  0.8905615955604560  0.3899016239519071
  0.6400281426443328  0.8894754195730314  0.8897955354944358
  0.3853570064401097  0.3881270012073372  0.1386390595554019
  0.3893264505440612  0.3900076494838487  0.6423240586612025
  0.3891989681300103  0.8895961841367352  0.1397360334854980
  0.3890427106016006  0.8888751216915196  0.6407772016233935
  0.8894904962723231  0.3886255837758057  0.1375136136394488
  0.8900297769812155  0.3899584648976955  0.6394919685047427
  0.8901861543837413  0.8902566670101990  0.1397585495279969
  0.8896723185825124  0.8900106597311677  0.6398139429220819
  0.2487661515922071  0.2484663283811699  0.2492315751543401
  0.2479365482404745  0.2482416709121225  0.7481972732796152
  0.2478009685205791  0.7487468086774101  0.2480658322624194
  0.2477353391944916  0.7479456742727919  0.7482805641242649
  0.7491821392735361  0.2480825647148777  0.2480154284772667
  0.7484563768287344  0.2482977481016917  0.7482461899692368
  0.7484373036834384  0.7484048928690754  0.2482708338108708
  0.7480525827375502  0.7482403888042697  0.7481241283085325
  0.4974429275267127  0.2500019467987826  0.5025753907033987
  0.4978207319527712  0.2482424142500079  0.9940025546757383
  0.4986483514610001  0.7471222677008313  0.4981140808469675
  0.4978107443793292  0.7479624495332970  0.9987346793362732
  0.9980768736886887  0.2481650672529554  0.4984446635565476
  0.9985291312322531  0.2480638950374328  0.9981173033840847
  0.9979131860416786  0.7485449772307859  0.4980442970931236
  0.9978081507383578  0.7487592323918619  0.9976189807389062
  0.2519138341166212  0.4967842551796693  0.4968229395934287
  0.2466441684511764  0.4986663361273358  0.9966941567234926
  0.2475725288981536  0.9979207952568245  0.4985701960049909
  0.2480323091656729  0.9980664598311364  0.9982141160131306
  0.7478601002639209  0.4986032725040062  0.4984389680126569
  0.7481370025751133  0.4981955593652003  0.9980201841781025
  0.7481311683466245  0.9987143574167945  0.4978391304179297
  0.7487213849481051  0.9977576898912801  0.9977758687977882
  0.5018878927889219  0.4978211609447456  0.2504323029559714
  0.4977587694074117  0.4985316457610693  0.7477168967936549
  0.4988453281589216  0.9964639928530445  0.2471229633019263
  0.4980056416317424  0.9979544632570096  0.7482325769586211
  0.9935596222245806  0.4975990067354061  0.2491144731708488
  0.9980964091134581  0.4981834950333948  0.7478784872805804
  0.9985125721633992  0.9984972345970391  0.2482384399479756
  0.9981998584544627  0.9982530922058359  0.7480178129185049
  0.4970800256059391  0.4978677095306807  0.4978006729816826
  0.4980960187532730  0.4963517645966746  0.9970695693551477
  0.4962137307048664  0.9963577619214590  0.4981619113024962
  0.4985011502662857  0.9975075736262085  0.9975658473961886
  0.9984383288423473  0.4987764307308638  0.4983343301925487
  0.9973663201332315  0.4985077234204311  0.9977053426732780
  0.9978273376232920  0.9983381679797390  0.4982339859578957
  0.9982864710302408  0.9982728910649499  0.9980841819041544
  0.2370973608046967  0.5014086524855657  0.2437717428646451
  0.2478017482583397  0.4983973643922184  0.7473047419658414
  0.2480414124335297  0.9983334559781696  0.2484662636360682
  0.2478415968098631  0.9980006462202695  0.7482524518421485
  0.7478350940820633  0.4984883344045343  0.2478342976294456
  0.7483288832696502  0.4981127430190710  0.7484071602644775
  0.7486360761232049  0.9981204773414234  0.2481870603515404
  0.7482120395340601  0.9979648898915201  0.7481582419959736
  0.5017967293029457  0.2437996199402050  0.2384504439877730
  0.4986331335866723  0.2473179972909989  0.7481274943825085
  0.4985376914220154  0.7474226256326020  0.2483255247821532
  0.4980550006582902  0.7482173567395023  0.7485077655544572
  0.9986884382053134  0.2484904097635194  0.2485476401665636
  0.9984471919929589  0.2481687942629094  0.7482967734205701
  0.9980535780225068  0.7487275028761786  0.2482349898370231
  0.9982616051300610  0.7481364100447223  0.7478440657638004
  0.2486243245872828  0.2485984786649311  0.4988428438221177
  0.2487167625658131  0.2479378220754427  0.9980406690566710
  0.2476808721522801  0.7473969477174123  0.4984429570298516
  0.2481875504180593  0.7483924336796761  0.9978018084645726
  0.7475150958492520  0.2484127932841673  0.4988054204048140
  0.7488610131888223  0.2477553282224747  0.9979605266926725
  0.7479914959280336  0.7486680024392314  0.4984012738876160
  0.7481884284936555  0.7480039567264214  0.9979879738357269
  0.2095703112367744  0.3696389955892698  0.2711904853660201
  0.2085427980251495  0.3685972880062351  0.7707977505165999
  0.2079095111251306  0.8688155640699549  0.2705125579910259
  0.2080074572554409  0.8683284410791146  0.7706426907783310
  0.7080034616219919  0.3685026640036924  0.2698591986580539
  0.7082687607720004  0.3685923415795074  0.7708478795815523
  0.7084477584858675  0.8686705213495785  0.2706233295028468
  0.7080480937588973  0.8686060225443981  0.7706764823961834
  0.4578787192410161  0.3671704707498478  0.0227787300173645
  0.4595359294042183  0.3690109613364996  0.5248208019187786
  0.4580865074898028  0.8680562303512289  0.0210574371709100
  0.4583789713946800  0.8694049952851444  0.5206526381278849
  0.9579127462267749  0.3684677566855541  0.0200698679790747
  0.9583258026438557  0.3690548980905461  0.5198890439302986
  0.9577763187525008  0.8689338030395319  0.0203913167606373
  0.9576140829052449  0.8690045287325106  0.5203945641268248
  0.2085047765232986  0.1184816821187695  0.0209427963930437
  0.2083212143559692  0.1182528691000115  0.5210476337183323
  0.2073145134287344  0.6187153926563695  0.0202172181268878
  0.2082657994852894  0.6181975500541839  0.5188027381470377
  0.7083186511058059  0.1184017336246512  0.0197500340525210
  0.7074908718040120  0.1191418559974480  0.5203767938954158
  0.7080566062740985  0.6183058772524461  0.0206879254050349
  0.7080155383416269  0.6192100005075361  0.5203839606227589
  0.4575728069191243  0.1171522753512235  0.2674042560362366
  0.4579324064530184  0.1182759515889771  0.7716362621707731
  0.4594515229188545  0.6173066197176311  0.2723968438394166
  0.4583515035661847  0.6182899201154939  0.7716738530848559
  0.9587396941019577  0.1190763684872778  0.2704982131330667
  0.9581492030834156  0.1186058816833295  0.7705136437228290
  0.9573645524058847  0.6185550398028710  0.2704235926552130
  0.9582717910903469  0.6185344139525668  0.7704096575660699
  0.2709686371597115  0.2083816315284466  0.3693555035858367
  0.2708525707479907  0.2080188423466680  0.8689453116761783
  0.2706307985625429  0.7085695800411571  0.3679902409403368
  0.2705603104464132  0.7078735617132281  0.8686578587372580
  0.7702088418232833  0.2089854649003726  0.3686570779962253
  0.7710452148694174  0.2081925065464674  0.8686938478181219
  0.7705383839172342  0.7086390430793514  0.3686769133367989
  0.7702515322539227  0.7081274820037038  0.8686207668913113
  0.0212740105847473  0.2088530387040990  0.1187284664035104
  0.0203525154544622  0.2083120838764643  0.6188169247062802
  0.0196466876877039  0.7088529603545553  0.1183809865897132
  0.0205957251777846  0.7084325924225041  0.6183362820281957
  0.5235911079433322  0.2059731887261620  0.1165492232029877
  0.5225164372408528  0.2061147266294086  0.6202959380533528
  0.5202118734929329  0.7069508123863315  0.1191485855513861
  0.5203935030005908  0.7084531899254927  0.6188498259859259
  0.2672424789997194  0.4572115015361149  0.1175445949717258
  0.2717152162292038  0.4586191930135399  0.6182809734223866
  0.2705846405693606  0.9584374042509651  0.1186114097155198
  0.2709091817990199  0.9578285769936272  0.6185775851461983
  0.7710809339202953  0.4578391328334703  0.1184552709423272
  0.7704521177099934  0.4586886050151335  0.6187317483655477
  0.7709364571755728  0.9582497369354499  0.1182773904610102
  0.7700618481339845  0.9585907667814411  0.6182678244690862
  0.0218291316131314  0.4590112671058364  0.3677444817496749
  0.0203563353891099  0.4583249866917996  0.8682721199538435
  0.0207339154577824  0.9585701218536258  0.3685414626898691
  0.0206380102996775  0.9583356475628761  0.8684055167728815
  0.5234762667288635  0.4586106316444543  0.3691923052241037
  0.5199193348112843  0.4576797382565161  0.8699769212279236
  0.5207055379472934  0.9590483282375999  0.3680914427203632
  0.5204825301399296  0.9572968537746647  0.8684584590956987
  0.3700811771760826  0.2710783236391450  0.2100497348716956
  0.3688703226502810  0.2700583558795486  0.7087362132585255
  0.3686816472224308  0.7697731236899941  0.2086147896245762
  0.3684259750118812  0.7701588999458409  0.7086756961004994
  0.8690832766939138  0.2711105857756380  0.2080459062962277
  0.8684948743780012  0.2708291720571054  0.7083999807005981
  0.8685563913427572  0.7710954240597587  0.2081476436615404
  0.8683598405228139  0.7705670264561277  0.7082247318958821
  0.1182401429533897  0.2695564586968899  0.4586321955319761
  0.1189351150482878  0.2707864528922599  0.9589339386914162
  0.1182132722475515  0.7709063582083076  0.4579550869518272
  0.1183153413830809  0.7708638667005232  0.9581634762166118
  0.6174203420148174  0.2717930381059830  0.4595552072585534
  0.6183268215406770  0.2708581577028824  0.9577947765298092
  0.6183663780861082  0.7717257106564048  0.4582481409642369
  0.6181501496419202  0.7700551630779060  0.9586526787675709
  0.3682073157529615  0.0212733420002422  0.4574499426002205
  0.3685431916510922  0.0201121398020163  0.9580339341158108
  0.3698663968586970  0.5256743418530263  0.4595094398761432
  0.3681014110046590  0.5199409170087321  0.9596140049957924
  0.8682325739702321  0.0213364192658076  0.4579755899315501
  0.8687305549460547  0.0208915656950097  0.9578192599541921
  0.8681178670568528  0.5205354776777469  0.4575468810013845
  0.8681607089863661  0.5208113883847929  0.9576694459259443
  0.1188008252350343  0.0211905974993769  0.2081203760821850
  0.1185562800933653  0.0206207690494153  0.7079383754501194
  0.1158519576117527  0.5237734601916912  0.2057251433022529
  0.1186657097687132  0.5203700500946340  0.7076220708825289
  0.6189716057856032  0.0199878314916049  0.2073868279633970
  0.6182313079749520  0.0203990213280179  0.7083289160133077
  0.6196049954053606  0.5215501108838154  0.2061281853179366
  0.6182631058942150  0.5203030088921494  0.7090077068524039
  0.2096446662764251  0.2704369177659913  0.1190769037068620
  0.2075079626404843  0.2698477793445946  0.6196642886820740
  0.2076800456003127  0.7707319799017327  0.1182732446311050
  0.2078316278848433  0.7701403998429583  0.6186480882941439
  0.7081534823944153  0.2700295417310272  0.1184330592503500
  0.7076865114241215  0.2709066509742755  0.6192101950093871
  0.7081558337973348  0.7700497161622550  0.1186377933832290
  0.7077977008465268  0.7710236528208654  0.6187112604845595
  0.4623375907226475  0.2526818027308622  0.3701008326569948
  0.4573242174700241  0.2713889636241404  0.8690051149648497
  0.4583075925237878  0.7705993679509717  0.3685660278410410
  0.4582730551011451  0.7698326599996932  0.8691997091961099
  0.9579845610085300  0.2710569139797698  0.3684958750311225
  0.9582851172270637  0.2705497453115271  0.8686849104838359
  0.9577719735003427  0.7711987359032761  0.3683488574922009
  0.9579280174722200  0.7706480604308865  0.8683386580201002
  0.2081593819104981  0.0208884678758423  0.3685820061644449
  0.2081271473321991  0.0205022225435982  0.8686353051681266
  0.2114967731932893  0.5204623754178783  0.3664731066758478
  0.2077918536976568  0.5208700286519488  0.8681084235806651
  0.7082246303016220  0.0212000685051379  0.3681399647357395
  0.7081890185260988  0.0203826304256438  0.8684534679265354
  0.7082225152008021  0.5208621686211572  0.3678604735996132
  0.7074590486753607  0.5201871559424873  0.8689635524397659
  0.4580032732943664  0.0194100262203918  0.1178777961979947
  0.4582083765836131  0.0216279047339683  0.6181863629063145
  0.4572696014268871  0.5185710907327206  0.1212895891394794
  0.4590341995115637  0.5208850693743230  0.6194044900139062
  0.9584785603541448  0.0207043307934569  0.1185168102640901
  0.9578567181387427  0.0207836391680303  0.6185373770969775
  0.9570251800650027  0.5201871847550734  0.1183059358483760
  0.9576899156802270  0.5209284299906258  0.6185339429966348
  0.1193644420740156  0.2094067302179496  0.2712180066066239
  0.1185269775288162  0.2081175542526950  0.7715535559804820
  0.1183536761853219  0.7077766803839438  0.2705066792772115
  0.1184059789835459  0.7080243403296009  0.7709699035374484
  0.6196301617240110  0.2059664019945942  0.2701154170851652
  0.6183423289429442  0.2082194721264798  0.7722161490909443
  0.6189009625531199  0.7077126942868972  0.2707396569437179
  0.6182928443212035  0.7082014674050541  0.7708966645670756
  0.3690133204212174  0.2075156915556846  0.0216637088062939
  0.3687019679486880  0.2099531852061105  0.5237389141088755
  0.3682253782911005  0.7078103003524774  0.0210023741800001
  0.3686686557437184  0.7094432030004896  0.5207366825313215
  0.8687517019366737  0.2081004085962022  0.0211614347795290
  0.8679277243593404  0.2088180398999668  0.5209170395421125
  0.8683800174530631  0.7081347037115435  0.0204055956200406
  0.8681958834246970  0.7088315670765155  0.5208396995281959
  0.1177714167083579  0.4576627384093115  0.0196531015586032
  0.1183133759524253  0.4610000615886278  0.5201252138798225
  0.1185937781205553  0.9580217006974507  0.0205009670152023
  0.1182962410025823  0.9585065324372479  0.5207977652389815
  0.6179966656023836  0.4578040742779663  0.0219568859541042
  0.6183803452637449  0.4594306397650598  0.5206462580628397
  0.6186762106039154  0.9579234976870623  0.0203581610179171
  0.6175295453228387  0.9602082637799327  0.5198568927338840
  0.3694246685376754  0.4619729533379484  0.2537964146359855
  0.3683480350997428  0.4582196455252898  0.7707103811191587
  0.3684915440800012  0.9575659075860585  0.2702154525964175
  0.3684631377893126  0.9580230435547534  0.7703117892214735
  0.8684242764223526  0.4572032040092964  0.2717593653167256
  0.8685239913596803  0.4582275291182896  0.7708452131083163
  0.8688746884008438  0.9583630480978726  0.2706466272271300
  0.8684872125318037  0.9581856263137212  0.7704178161969821
  0.2709702494307180  0.1190257314214023  0.2090783158292027
  0.2705453352730842  0.1183105974543111  0.7087672633898379
  0.2701518555279847  0.6190058717203257  0.2062985261562460
  0.2707552577635965  0.6185218559693553  0.7078629692711687
  0.7712919051910276  0.1185308707464614  0.2077396280970518
  0.7699363384422355  0.1186761788291761  0.7081614821009552
  0.7715995613745861  0.6182207411486473  0.2083550374254273
  0.7702532924266947  0.6185601468325999  0.7084295253772908
  0.0199005185669066  0.1187960557973895  0.4582166235114471
  0.0208668871625903  0.1186903605108114  0.9582531163822381
  0.0196547520995338  0.6194202949516949  0.4576419365706386
  0.0204312435214362  0.6186755279736929  0.9583336232367827
  0.5201493935856121  0.1205913607327531  0.4572991362520682
  0.5206036267834264  0.1182155326932630  0.9575534404629167
  0.5216962752740457  0.6191326206148773  0.4593154875501497
  0.5199444778868525  0.6171746895901293  0.9602706181665965
  0.2649089796539599  0.3691139447671645  0.4613691926338035
  0.2707683541147574  0.3683143681951719  0.9580231690475927
  0.2699449512814525  0.8683979609729633  0.4582384355495108
  0.2708919402495482  0.8684623515715657  0.9580368955592959
  0.7696206944969362  0.3688931626579119  0.4583724327194290
  0.7702972995742670  0.3684464441426911  0.9583491691979589
  0.7699043389700719  0.8693053432507156  0.4582523614237104
  0.7706235324928272  0.8683945985787247  0.9580237972204770
  0.0214575159827746  0.3689770962966747  0.2079540099468957
  0.0206802939545483  0.3685350602901352  0.7079661573684604
  0.0210470335747246  0.8687737902138011  0.2082754245261356
  0.0206025667895062  0.8685457612196572  0.7080962926283760
  0.5224724418402928  0.3663743438460898  0.2128802455940573
  0.5205880654765949  0.3679956516750522  0.7095031569901593
  0.5212232241622985  0.8676488132288185  0.2078220214496085
  0.5201454085397685  0.8685854399577977  0.7080793200305777
 
  0.00000000E+00  0.00000000E+00  0.00000000E+00
  0.00000000E+00  0.00000000E+00  0.00000000E+00
  0.00000000E+00  0.00000000E+00  0.00000000E+00
  0.00000000E+00  0.00000000E+00  0.00000000E+00
  0.00000000E+00  0.00000000E+00  0.00000000E+00
  0.00000000E+00  0.00000000E+00  0.00000000E+00
  0.00000000E+00  0.00000000E+00  0.00000000E+00
  0.00000000E+00  0.00000000E+00  0.00000000E+00
  0.00000000E+00  0.00000000E+00  0.00000000E+00
  0.00000000E+00  0.00000000E+00  0.00000000E+00
  0.00000000E+00  0.00000000E+00  0.00000000E+00
  0.00000000E+00  0.00000000E+00  0.00000000E+00
  0.00000000E+00  0.00000000E+00  0.00000000E+00
  0.00000000E+00  0.00000000E+00  0.00000000E+00
  0.00000000E+00  0.00000000E+00  0.00000000E+00
  0.00000000E+00  0.00000000E+00  0.00000000E+00
  0.00000000E+00  0.00000000E+00  0.00000000E+00
  0.00000000E+00  0.00000000E+00  0.00000000E+00
  0.00000000E+00  0.00000000E+00  0.00000000E+00
  0.00000000E+00  0.00000000E+00  0.00000000E+00
  0.00000000E+00  0.00000000E+00  0.00000000E+00
  0.00000000E+00  0.00000000E+00  0.00000000E+00
  0.00000000E+00  0.00000000E+00  0.00000000E+00
  0.00000000E+00  0.00000000E+00  0.00000000E+00
  0.00000000E+00  0.00000000E+00  0.00000000E+00
  0.00000000E+00  0.00000000E+00  0.00000000E+00
  0.00000000E+00  0.00000000E+00  0.00000000E+00
  0.00000000E+00  0.00000000E+00  0.00000000E+00
  0.00000000E+00  0.00000000E+00  0.00000000E+00
  0.00000000E+00  0.00000000E+00  0.00000000E+00
  0.00000000E+00  0.00000000E+00  0.00000000E+00
  0.00000000E+00  0.00000000E+00  0.00000000E+00
  0.00000000E+00  0.00000000E+00  0.00000000E+00
  0.00000000E+00  0.00000000E+00  0.00000000E+00
  0.00000000E+00  0.00000000E+00  0.00000000E+00
  0.00000000E+00  0.00000000E+00  0.00000000E+00
  0.00000000E+00  0.00000000E+00  0.00000000E+00
  0.00000000E+00  0.00000000E+00  0.00000000E+00
  0.00000000E+00  0.00000000E+00  0.00000000E+00
  0.00000000E+00  0.00000000E+00  0.00000000E+00
  0.00000000E+00  0.00000000E+00  0.00000000E+00
  0.00000000E+00  0.00000000E+00  0.00000000E+00
  0.00000000E+00  0.00000000E+00  0.00000000E+00
  0.00000000E+00  0.00000000E+00  0.00000000E+00
  0.00000000E+00  0.00000000E+00  0.00000000E+00
  0.00000000E+00  0.00000000E+00  0.00000000E+00
  0.00000000E+00  0.00000000E+00  0.00000000E+00
  0.00000000E+00  0.00000000E+00  0.00000000E+00
  0.00000000E+00  0.00000000E+00  0.00000000E+00
  0.00000000E+00  0.00000000E+00  0.00000000E+00
  0.00000000E+00  0.00000000E+00  0.00000000E+00
  0.00000000E+00  0.00000000E+00  0.00000000E+00
  0.00000000E+00  0.00000000E+00  0.00000000E+00
  0.00000000E+00  0.00000000E+00  0.00000000E+00
  0.00000000E+00  0.00000000E+00  0.00000000E+00
  0.00000000E+00  0.00000000E+00  0.00000000E+00
  0.00000000E+00  0.00000000E+00  0.00000000E+00
  0.00000000E+00  0.00000000E+00  0.00000000E+00
  0.00000000E+00  0.00000000E+00  0.00000000E+00
  0.00000000E+00  0.00000000E+00  0.00000000E+00
  0.00000000E+00  0.00000000E+00  0.00000000E+00
  0.00000000E+00  0.00000000E+00  0.00000000E+00
  0.00000000E+00  0.00000000E+00  0.00000000E+00
  0.00000000E+00  0.00000000E+00  0.00000000E+00
  0.00000000E+00  0.00000000E+00  0.00000000E+00
  0.00000000E+00  0.00000000E+00  0.00000000E+00
  0.00000000E+00  0.00000000E+00  0.00000000E+00
  0.00000000E+00  0.00000000E+00  0.00000000E+00
  0.00000000E+00  0.00000000E+00  0.00000000E+00
  0.00000000E+00  0.00000000E+00  0.00000000E+00
  0.00000000E+00  0.00000000E+00  0.00000000E+00
  0.00000000E+00  0.00000000E+00  0.00000000E+00
  0.00000000E+00  0.00000000E+00  0.00000000E+00
  0.00000000E+00  0.00000000E+00  0.00000000E+00
  0.00000000E+00  0.00000000E+00  0.00000000E+00
  0.00000000E+00  0.00000000E+00  0.00000000E+00
  0.00000000E+00  0.00000000E+00  0.00000000E+00
  0.00000000E+00  0.00000000E+00  0.00000000E+00
  0.00000000E+00  0.00000000E+00  0.00000000E+00
  0.00000000E+00  0.00000000E+00  0.00000000E+00
  0.00000000E+00  0.00000000E+00  0.00000000E+00
  0.00000000E+00  0.00000000E+00  0.00000000E+00
  0.00000000E+00  0.00000000E+00  0.00000000E+00
  0.00000000E+00  0.00000000E+00  0.00000000E+00
  0.00000000E+00  0.00000000E+00  0.00000000E+00
  0.00000000E+00  0.00000000E+00  0.00000000E+00
  0.00000000E+00  0.00000000E+00  0.00000000E+00
  0.00000000E+00  0.00000000E+00  0.00000000E+00
  0.00000000E+00  0.00000000E+00  0.00000000E+00
  0.00000000E+00  0.00000000E+00  0.00000000E+00
  0.00000000E+00  0.00000000E+00  0.00000000E+00
  0.00000000E+00  0.00000000E+00  0.00000000E+00
  0.00000000E+00  0.00000000E+00  0.00000000E+00
  0.00000000E+00  0.00000000E+00  0.00000000E+00
  0.00000000E+00  0.00000000E+00  0.00000000E+00
  0.00000000E+00  0.00000000E+00  0.00000000E+00
  0.00000000E+00  0.00000000E+00  0.00000000E+00
  0.00000000E+00  0.00000000E+00  0.00000000E+00
  0.00000000E+00  0.00000000E+00  0.00000000E+00
  0.00000000E+00  0.00000000E+00  0.00000000E+00
  0.00000000E+00  0.00000000E+00  0.00000000E+00
  0.00000000E+00  0.00000000E+00  0.00000000E+00
  0.00000000E+00  0.00000000E+00  0.00000000E+00
  0.00000000E+00  0.00000000E+00  0.00000000E+00
  0.00000000E+00  0.00000000E+00  0.00000000E+00
  0.00000000E+00  0.00000000E+00  0.00000000E+00
  0.00000000E+00  0.00000000E+00  0.00000000E+00
  0.00000000E+00  0.00000000E+00  0.00000000E+00
  0.00000000E+00  0.00000000E+00  0.00000000E+00
  0.00000000E+00  0.00000000E+00  0.00000000E+00
  0.00000000E+00  0.00000000E+00  0.00000000E+00
  0.00000000E+00  0.00000000E+00  0.00000000E+00
  0.00000000E+00  0.00000000E+00  0.00000000E+00
  0.00000000E+00  0.00000000E+00  0.00000000E+00
  0.00000000E+00  0.00000000E+00  0.00000000E+00
  0.00000000E+00  0.00000000E+00  0.00000000E+00
  0.00000000E+00  0.00000000E+00  0.00000000E+00
  0.00000000E+00  0.00000000E+00  0.00000000E+00
  0.00000000E+00  0.00000000E+00  0.00000000E+00
  0.00000000E+00  0.00000000E+00  0.00000000E+00
  0.00000000E+00  0.00000000E+00  0.00000000E+00
  0.00000000E+00  0.00000000E+00  0.00000000E+00
  0.00000000E+00  0.00000000E+00  0.00000000E+00
  0.00000000E+00  0.00000000E+00  0.00000000E+00
  0.00000000E+00  0.00000000E+00  0.00000000E+00
  0.00000000E+00  0.00000000E+00  0.00000000E+00
  0.00000000E+00  0.00000000E+00  0.00000000E+00
  0.00000000E+00  0.00000000E+00  0.00000000E+00
  0.00000000E+00  0.00000000E+00  0.00000000E+00
  0.00000000E+00  0.00000000E+00  0.00000000E+00
  0.00000000E+00  0.00000000E+00  0.00000000E+00
  0.00000000E+00  0.00000000E+00  0.00000000E+00
  0.00000000E+00  0.00000000E+00  0.00000000E+00
  0.00000000E+00  0.00000000E+00  0.00000000E+00
  0.00000000E+00  0.00000000E+00  0.00000000E+00
  0.00000000E+00  0.00000000E+00  0.00000000E+00
  0.00000000E+00  0.00000000E+00  0.00000000E+00
  0.00000000E+00  0.00000000E+00  0.00000000E+00
  0.00000000E+00  0.00000000E+00  0.00000000E+00
  0.00000000E+00  0.00000000E+00  0.00000000E+00
  0.00000000E+00  0.00000000E+00  0.00000000E+00
  0.00000000E+00  0.00000000E+00  0.00000000E+00
  0.00000000E+00  0.00000000E+00  0.00000000E+00
  0.00000000E+00  0.00000000E+00  0.00000000E+00
  0.00000000E+00  0.00000000E+00  0.00000000E+00
  0.00000000E+00  0.00000000E+00  0.00000000E+00
  0.00000000E+00  0.00000000E+00  0.00000000E+00
  0.00000000E+00  0.00000000E+00  0.00000000E+00
  0.00000000E+00  0.00000000E+00  0.00000000E+00
  0.00000000E+00  0.00000000E+00  0.00000000E+00
  0.00000000E+00  0.00000000E+00  0.00000000E+00
  0.00000000E+00  0.00000000E+00  0.00000000E+00
  0.00000000E+00  0.00000000E+00  0.00000000E+00
  0.00000000E+00  0.00000000E+00  0.00000000E+00
  0.00000000E+00  0.00000000E+00  0.00000000E+00
  0.00000000E+00  0.00000000E+00  0.00000000E+00
  0.00000000E+00  0.00000000E+00  0.00000000E+00
  0.00000000E+00  0.00000000E+00  0.00000000E+00
  0.00000000E+00  0.00000000E+00  0.00000000E+00
  0.00000000E+00  0.00000000E+00  0.00000000E+00
  0.00000000E+00  0.00000000E+00  0.00000000E+00
  0.00000000E+00  0.00000000E+00  0.00000000E+00
  0.00000000E+00  0.00000000E+00  0.00000000E+00
  0.00000000E+00  0.00000000E+00  0.00000000E+00
  0.00000000E+00  0.00000000E+00  0.00000000E+00
  0.00000000E+00  0.00000000E+00  0.00000000E+00
  0.00000000E+00  0.00000000E+00  0.00000000E+00
  0.00000000E+00  0.00000000E+00  0.00000000E+00
  0.00000000E+00  0.00000000E+00  0.00000000E+00
  0.00000000E+00  0.00000000E+00  0.00000000E+00
  0.00000000E+00  0.00000000E+00  0.00000000E+00
  0.00000000E+00  0.00000000E+00  0.00000000E+00
  0.00000000E+00  0.00000000E+00  0.00000000E+00
  0.00000000E+00  0.00000000E+00  0.00000000E+00
  0.00000000E+00  0.00000000E+00  0.00000000E+00
  0.00000000E+00  0.00000000E+00  0.00000000E+00
  0.00000000E+00  0.00000000E+00  0.00000000E+00
  0.00000000E+00  0.00000000E+00  0.00000000E+00
  0.00000000E+00  0.00000000E+00  0.00000000E+00
  0.00000000E+00  0.00000000E+00  0.00000000E+00
  0.00000000E+00  0.00000000E+00  0.00000000E+00
  0.00000000E+00  0.00000000E+00  0.00000000E+00
  0.00000000E+00  0.00000000E+00  0.00000000E+00
  0.00000000E+00  0.00000000E+00  0.00000000E+00
  0.00000000E+00  0.00000000E+00  0.00000000E+00
  0.00000000E+00  0.00000000E+00  0.00000000E+00
  0.00000000E+00  0.00000000E+00  0.00000000E+00
  0.00000000E+00  0.00000000E+00  0.00000000E+00
  0.00000000E+00  0.00000000E+00  0.00000000E+00
  0.00000000E+00  0.00000000E+00  0.00000000E+00
  0.00000000E+00  0.00000000E+00  0.00000000E+00
  0.00000000E+00  0.00000000E+00  0.00000000E+00
  0.00000000E+00  0.00000000E+00  0.00000000E+00
  0.00000000E+00  0.00000000E+00  0.00000000E+00
  0.00000000E+00  0.00000000E+00  0.00000000E+00
  0.00000000E+00  0.00000000E+00  0.00000000E+00
  0.00000000E+00  0.00000000E+00  0.00000000E+00
  0.00000000E+00  0.00000000E+00  0.00000000E+00
  0.00000000E+00  0.00000000E+00  0.00000000E+00
  0.00000000E+00  0.00000000E+00  0.00000000E+00
  0.00000000E+00  0.00000000E+00  0.00000000E+00
  0.00000000E+00  0.00000000E+00  0.00000000E+00
  0.00000000E+00  0.00000000E+00  0.00000000E+00
  0.00000000E+00  0.00000000E+00  0.00000000E+00
  0.00000000E+00  0.00000000E+00  0.00000000E+00
  0.00000000E+00  0.00000000E+00  0.00000000E+00
  0.00000000E+00  0.00000000E+00  0.00000000E+00
  0.00000000E+00  0.00000000E+00  0.00000000E+00