Li63 Nb64 O192                          
   1.00000000000000     
    15.1469600000000000   -0.0012470000000000   -0.0011610000000000
     1.0576070000000000   15.1097420000000007   -0.0009680000000000
     1.0576360000000000    0.9859670000000000   15.0777149999999995
   Li   Nb   O 
    63    64   192
Direct
  0.2501485290137637  0.2504732143516080  0.2496817604142407
  0.2507559349348725  0.2503687839333750  0.7489125531294576
  0.2500894139032113  0.7500216646999363  0.2502209555189054
  0.2500895671697734  0.7499310603111837  0.7500554720884125
  0.7491245697268241  0.2511928677254360  0.2502894889979004
  0.7499630032353082  0.2502154382691799  0.7498681156542162
  0.7499971797125440  0.7499867882072309  0.2501025862536324
  0.7500845062074646  0.7499599643250789  0.7501214294810055
  0.0001888229246845  0.2501773224923056  0.9999746814577577
  0.9995666850568128  0.2507250268472418  0.4998819801814136
  0.0000541270095340  0.7500535115279376  0.0000543002895128
  0.9999741426562636  0.7501879887262817  0.5001780954140500
  0.5007259935779018  0.2498812607389951  0.9995670193613080
  0.5001778832664598  0.7499735601055590  0.0001891314896270
  0.4998814910415845  0.7495663770788639  0.5007262995488801
  0.2502205112391636  0.0000889063620590  0.0000225397319653
  0.2496814235317828  0.0001478400316870  0.5004743958568909
  0.2501020697667684  0.4999968610814349  0.9999877438676492
  0.2502889493341200  0.4991238809900551  0.5011937023048034
  0.7500548850163753  0.0000888672591799  0.9999321311983067
  0.7489117061952371  0.0007549467954959  0.5003696577550940
  0.7501210978522437  0.5000843398058237  0.9999606820727180
  0.7498676810203690  0.4999628989206641  0.5002162202065747
  0.0000225404333136  0.0002200114912867  0.2500898913881926
  0.9999876017491971  0.0001015711420465  0.7499976734661757
  0.9999313624144932  0.5000545143855035  0.2500893469893342
  0.9999606142935349  0.5001200142493616  0.7500853075864313
  0.5004745275641795  0.9996807826587641  0.2501492143501807
  0.5011932839424276  0.0002886172890584  0.7491247841025412
  0.5003688402062068  0.4989114147066118  0.2507563487042219
  0.5002161353503070  0.4998676992613014  0.7499634779502387
  0.0000384334528363  0.0000944715560820  0.0001075964831685
  0.9999189574407410  0.9999155378814422  0.5002872707484016
  0.0000163912225375  0.5001091781481009  0.0001115127197124
  0.0000005031425587  0.4996871192863281  0.5001876105860674
  0.5002102454346016  0.0005175163490918  0.9996407687008428
  0.5011333241809908  0.0002329714314868  0.5000384957712001
  0.5001721899104297  0.5001311142693865  0.0000110011089944
  0.5010910300012128  0.5019019461423753  0.4998116915635933
  0.2502964317713605  0.0002957144894609  0.2502956507250005
  0.2502494258489278  0.0003038970629206  0.7497818990960425
  0.2503044098639577  0.4997819791113542  0.2502486669569777
  0.2502587049387586  0.4991047693475892  0.7487109431583150
  0.7497824300460891  0.0002493467565969  0.2503035451379461
  0.7487110879135983  0.0002584256766767  0.7491041320224241
  0.7491045489867005  0.4987110242933568  0.2502582730195044
  0.7500650311675301  0.5000650628683445  0.7500645239983825
  0.9996415591679337  0.2502095235470847  0.2505174663588363
  0.0000117279483050  0.2501717022575463  0.7501309981861439
  0.0001082442121287  0.7500377220852243  0.2500941027570533
  0.0001114240263362  0.7500173835847264  0.7501090676519482
  0.5000384205086732  0.2511334140692441  0.2502318340859802
  0.4998126779562995  0.2510916010772704  0.7519015554810977
  0.5002880429725138  0.7499183702257781  0.2499150766537070
  0.5001885076095505  0.7500002469983826  0.7496869097230103
  0.2499158451215990  0.2502877329924544  0.9999182650089224
  0.2502330318983255  0.2500385097280287  0.5011328654069160
  0.2500942843763951  0.7501081667169913  0.0000377853096794
  0.2505181268473251  0.7496408885261161  0.5002094818617309
  0.7496872307424098  0.2501879094724089  0.0000003248981599
  0.7519021045069891  0.2498126909083638  0.5010907709414809
  0.7501093427939551  0.7501113715100018  0.0000165403713623
  0.7501313833414542  0.7500115630055220  0.5001713605576370
  0.1085886637981872  0.1087192137468449  0.1087408622239678
  0.1079662534297938  0.1086351145138096  0.6088510008442398
  0.1087722738615469  0.6086757110144418  0.1087242219572886
  0.1086785608540026  0.6085196689604189  0.6086367502010575
  0.6086944026737626  0.1088406042645929  0.1083127757204423
  0.6065035549684268  0.1126494676295309  0.6077217771579271
  0.6088042303088201  0.6084933914802804  0.1086550528266415
  0.6091793964906174  0.6084657003572431  0.6089784356169687
  0.3590189911766757  0.1090154599153692  0.3590168970121823
  0.3586037029895905  0.1087410815365928  0.8583314072606427
  0.3587437066471111  0.6083301001581063  0.3586019295467864
  0.3587051015886473  0.6087003208814679  0.8586524646300475
  0.8583329578994281  0.1086017622764928  0.3587419146666448
  0.8586536300886891  0.1087035416745508  0.8587014398262696
  0.8587027329305030  0.6086514154177181  0.3587035147757476
  0.8587631428315916  0.6087615549119079  0.8587617299463304
  0.1083144338332360  0.3586916296531442  0.3588417525048015
  0.1086568367585770  0.3588020281366298  0.8584946540080480
  0.1087427507146828  0.8585855345638507  0.3587202560503329
  0.1087262569455305  0.8587698303463327  0.8586768496432384
  0.6077233858573550  0.3565013839424438  0.3626497738032342
  0.6089801708407450  0.3591769306402881  0.8584662096543951
  0.6088527238728645  0.8579636303498859  0.3586371164251432
  0.6086384050401747  0.8586754783126551  0.8585205386138668
  0.3586390584338304  0.3588505488791540  0.1079638193860362
  0.3626514103492084  0.3577212769667497  0.6065023560277254
  0.3587214131425114  0.8587401590826786  0.1085867825206819
  0.3588426979250698  0.8583121701383405  0.6086925865151613
  0.8585219340777286  0.3586365609502167  0.1086768368099413
  0.8584678422533401  0.3589775672048177  0.6091778362201126
  0.8586785472056562  0.8587237770638367  0.1087705557909828
  0.8584964139465683  0.8586541383483137  0.6088026244076232
  0.3589359213161103  0.3583543549714037  0.3583843855269464
  0.3588260107937344  0.3586940364606335  0.8580208627036541
  0.3587339821916231  0.8585281763017107  0.3587590165123302
  0.3589032012388955  0.8586241132841295  0.8587030924659445
  0.8575355916210157  0.3590746818338317  0.3585208773335751
  0.8589038838098872  0.3587332646046164  0.8587279005072688
  0.8586673051929523  0.8587787652922572  0.3587597003465319
  0.8587317308355225  0.8588519957372327  0.8586137059768220
  0.1084427599840012  0.3587812376832460  0.1085844691616984
  0.1086651389477140  0.3589437355169807  0.6090631804984667
  0.1086987941707918  0.8586966270248411  0.1086988217978728
  0.1085845110066401  0.8584408409061979  0.6087836874066497
  0.6089458603374780  0.3590607400120547  0.1086651085242636
  0.6085894870730044  0.3585880565347637  0.6085894160611502
  0.6087833497669948  0.8585819389602563  0.1084431860459247
  0.6090626260874856  0.8586635819323902  0.6089459745331496
  0.3587586118260617  0.1087318990508948  0.1085312424326617
  0.3583837881516843  0.1089336914395673  0.6083572841278766
  0.3587593979298589  0.6086651985648430  0.1087810438445729
  0.3585203867810449  0.6075333484785261  0.6090774677376487
  0.8587031917501093  0.1089010883151857  0.1086266772405011
  0.8580212283854678  0.1088232860999625  0.6086965013862269
  0.8586132018557535  0.6087298234879199  0.1088540427117266
  0.8587274244262773  0.6089020605165913  0.6087354496632997
  0.1085311649803486  0.1087556127159957  0.3587341778861983
  0.1087809466565091  0.1087571183006517  0.8586675082700026
  0.1086261815696901  0.6087000714396922  0.3589035066130535
  0.1088545148528226  0.6086115593370920  0.8587325711272342
  0.6083569200819525  0.1083824739208126  0.3589362881560945
  0.6090767967060060  0.1085185268792586  0.8575353789751077
  0.6086961518469920  0.6080192712946655  0.3588258936648998
  0.6087349379774807  0.6087256396927856  0.8589042730215226
  0.3145636464275015  0.2268141587690309  0.3795314667794187
  0.3143821255254124  0.2265121058229198  0.8793058777403644
  0.3143755435757427  0.7264712000536093  0.3791490650801990
  0.3142707274305749  0.7263869639693468  0.8794910436369321
  0.8148090082301351  0.2262893991586026  0.3799632554307522
  0.8145031084940726  0.2264656754441319  0.8796314915260552
  0.8144375481803650  0.7264270349215067  0.3795380835393161
  0.8144665885665034  0.7265013528755802  0.8795655944012140
  0.0643382368622980  0.2264422552458143  0.1296028970081906
  0.0643172603352298  0.2265852247289857  0.6296739148704376
  0.0644102394233030  0.7264832538587314  0.1294826318418529
  0.0642884202620166  0.7264339965129807  0.6294867425598625
  0.5645795742455775  0.2266318085242460  0.1293531675582571
  0.5666138835147052  0.2280741684032819  0.6350886805440368
  0.5643739593547181  0.7263455997772823  0.1292910059155403
  0.5641111268341632  0.7259805111333293  0.6294339042591446
  0.3143001718003191  0.4766142208666295  0.1291389508339122
  0.3145848348474942  0.4760364076465393  0.6283461173226073
  0.3143970865092811  0.9764899842944175  0.1295729537196166
  0.3143229464562793  0.9759125545565652  0.6295838929654352
  0.8143713394364696  0.4765013949052630  0.1294740228979663
  0.8146570294602995  0.4768999344628355  0.6298523990036529
  0.8145246377998987  0.9764681743587644  0.1296101252249997
  0.8145504042372451  0.9764116078728833  0.6297035080628532
  0.0641813233407618  0.4766538811745278  0.3794117373381170
  0.0644047575487932  0.4765553191734284  0.8796256486844030
  0.0646194801343967  0.9764124678672275  0.3796178299046744
  0.0643796425362169  0.9764426434912394  0.8796188176497353
  0.5650286742806756  0.4762808021567935  0.3798630501489768
  0.5643515840560198  0.4768175704486239  0.8799210959900279
  0.5642418744012616  0.9756276276267783  0.3783350614349814
  0.5643763674905173  0.9762503454835141  0.8794801366825595
  0.3783351980136942  0.3142431431570927  0.2256268228617415
  0.3798634140491686  0.3150296722013834  0.7262803677399958
  0.3796209092319955  0.8146207564258319  0.2264129675676259
  0.3794118945739129  0.8141823306362923  0.7266538747134774
  0.8794800363629633  0.3143777652815629  0.2262506656998227
  0.8799219977740620  0.3143529840441488  0.7268179553481247
  0.8796188570842602  0.8143807859340555  0.2264423039886836
  0.8796263181870572  0.8144062354872048  0.7265547818563789
  0.1293536832714963  0.3145800136393717  0.4766320793206305
  0.1292911890617319  0.3143753267817431  0.9763455180753411
  0.1296032283988211  0.8143388838500201  0.4764418600897500
  0.1294826549597303  0.8144114031822056  0.9764830967403526
  0.6350885461052229  0.3166145053176024  0.4780734829510251
  0.6294347444743380  0.3141124773040502  0.9759796160443059
  0.6296747582679245  0.8143182001268627  0.4765857813429193
  0.6294870807671060  0.8142895826428429  0.9764339769916930
  0.3795320770155115  0.0645643677395142  0.4768141483761497
  0.3791496679112143  0.0643766571879070  0.9764715704262485
  0.3799638569117789  0.5648099463032850  0.4762887659526456
  0.3795386550452093  0.5644385682207229  0.9764269134432340
  0.8793061708985377  0.0643831028934727  0.4765120776586045
  0.8794912252673868  0.0642717988030981  0.9763868056372260
  0.8796313564616582  0.5645057809972229  0.4764656848636619
  0.8795647784627860  0.5644694179262260  0.9765007326180140
  0.1295739605617996  0.0643987055266351  0.2264894499999386
  0.1291391481748718  0.0643011392134127  0.7266144634847151
  0.1296101093157560  0.5645254829495840  0.2264682086206875
  0.1294734046772774  0.5643730405319900  0.7265016956639911
  0.6295850276667920  0.0643240390166540  0.2259117106640005
  0.6283462202459233  0.0645851761908389  0.7260358082253688
  0.6297041292111629  0.5645518429769822  0.2264111732484864
  0.6298526445412733  0.5646579085498402  0.7268998884725661
  0.2259115119817068  0.3795854783598571  0.3143245834726045
  0.2264108180496436  0.3797051559583053  0.8145521832636433
  0.2264894901805263  0.8795742960644759  0.3143988680091923
  0.2264676261729832  0.8796115051798523  0.8145259789040296
  0.7260356988022281  0.3783490067931723  0.3145869345046037
  0.7268996602064774  0.3798539236853884  0.8146579810589643
  0.7266137916573001  0.8791409700247428  0.3143018250951215
  0.7265009117668413  0.8794752104491792  0.8143727156976439
  0.4765850982302666  0.3796767688363474  0.0643179578126194
  0.4780733400102974  0.3850889858387205  0.5666149010765693
  0.4764412693314313  0.8796045138682729  0.0643394746912165
  0.4766307632535955  0.8793564740492741  0.5645805982364038
  0.9764331864235771  0.3794883187078710  0.0642902149902014
  0.9759796583514984  0.3794355252442543  0.5641127195963946
  0.9764825895063680  0.8794839886943890  0.0644118188414069
  0.9763450468354407  0.8792929922531556  0.5643760511620215
  0.2264124158075802  0.1296232374052337  0.0646213668572386
  0.2256265924196086  0.1283361912237879  0.5642434148458051
  0.2264419315535946  0.6296200677806141  0.0643810836345011
  0.2262500946924391  0.6294808604481474  0.5643784331927009
  0.7266534984532811  0.1294125563404194  0.0641826010238731
  0.7262801694504901  0.1298643406471029  0.5650299186560659
  0.7265540729063744  0.6296275906824320  0.0644063398758021
  0.7268175125547245  0.6299233419680164  0.5643540352727996
  0.4768143264382445  0.1295333558884906  0.3145652245113695
  0.4762885081459771  0.1299646437317463  0.8148102478057169
  0.4765116308697372  0.6293068538959403  0.3143832461220342
  0.4764652090390911  0.6296319189164237  0.8145057522990911
  0.9764706925233071  0.1291503937328500  0.3143769158026259
  0.9764262173125928  0.1295397362142054  0.8144392026056622
  0.9763864068809198  0.6294921251287491  0.3142720148547014
  0.9765003034392308  0.6295720193830405  0.8144724862927930
  0.3148987132465564  0.1295131272431860  0.2265849220686675
  0.3139106871727222  0.1280170697701166  0.7272057387275268
  0.3141883399381769  0.6299169802595586  0.2262354413592504
  0.3140193798526667  0.6290435345465966  0.7267018210545899
  0.8147314125577836  0.1301101257305248  0.2261650049294275
  0.8143740955596357  0.1296204306971518  0.7265947710338025
  0.8143983633584142  0.6298311619547476  0.2264469159124687
  0.8145069513162895  0.6296582192444546  0.7265685855513837
  0.0641315438748862  0.1296439241247640  0.4763900495465521
  0.0644074622513386  0.1295185093134634  0.9764747253629693
  0.0640829521221633  0.6299155457487089  0.4764243079099373
  0.0644142903843914  0.6295536234143810  0.9764538058053560
  0.5683215889272830  0.1220838969330416  0.4774498793225206
  0.5647729148950518  0.1288815430106993  0.9760284598890507
  0.5644395604596610  0.6291557716097671  0.4765495301277980
  0.5642634095447363  0.6297571083510007  0.9765381286238082
  0.3156117037891946  0.3796218137661427  0.4765542304183015
  0.3144315183167095  0.3793677764304277  0.9761265680543332
  0.3144133551165851  0.8793068431439934  0.4765235229816582
  0.3143179659131548  0.8793770786797168  0.9765208900965163
  0.8151469168851833  0.3800288917986734  0.4766041431727501
  0.8145259005184329  0.3796912687918379  0.9763643036469816
  0.8143388207260358  0.8796479234029206  0.4764735602145080
  0.8144601628364114  0.8795414653766258  0.9764404640682116
  0.0644025722998904  0.3796919208773133  0.2263004705203358
  0.0635915044796675  0.3797955209678250  0.7269306436256002
  0.0644353565177553  0.8795528384819917  0.2264537454189721
  0.0643269536541524  0.8794344118675568  0.7265837044936490
  0.5666160537692164  0.3807549489695177  0.2252258365270379
  0.5654029591126317  0.3804709326830391  0.7271525395250436
  0.5643940753056427  0.8789510108428971  0.2262522776907829
  0.5640688362001356  0.8787007483516689  0.7270108209800341
  0.2262524528193737  0.3143937410597601  0.1289513743605397
  0.2252260493420266  0.3166158508373869  0.6307551955229584
  0.2264535829965268  0.8144350166092238  0.1295534881589759
  0.2262987331443469  0.8143996854073663  0.6296947805752566
  0.7270109510448535  0.3140684650634427  0.1287009340096432
  0.7271527600370007  0.3154023911957111  0.6304706351284892
  0.7265836457996215  0.8143260637560559  0.1294353976878284
  0.7269303975932502  0.8135915748326781  0.6297960265094460
  0.4774497422022890  0.3183212949173893  0.3720824906022315
  0.4765499750171998  0.3144392886737037  0.8791559094917929
  0.4763899551276722  0.8141312486017753  0.3796459511346981
  0.4764241141957868  0.8140827348259663  0.8799163804912311
  0.9760286110337333  0.3147723451124236  0.3788821881131810
  0.9765379535014276  0.3142632049341785  0.8797573644965340
  0.9764745734528404  0.8144069529820257  0.3795191046021813
  0.9764532320072234  0.8144141501366349  0.8795542067071693
  0.2265849770999253  0.0648980745490917  0.3795136412688791
  0.2262353200009315  0.0641883221336812  0.8799177514693426
  0.2261646545834637  0.5647307731844791  0.3801107660213887
  0.2264470681895432  0.5643977020104600  0.8798323096185001
  0.7272058256802794  0.0639105743908246  0.3780176285575152
  0.7267016885820397  0.0640201193677399  0.8790439219360664
  0.7265947861778059  0.5643735028620753  0.3796219425041087
  0.7265681350079873  0.5645067587591157  0.8796584862298573
  0.4765235164220414  0.0644126577699566  0.1293078068844267
  0.4765541873360633  0.0656116766851440  0.6296222567183136
  0.4764734227023482  0.5643382557702736  0.1296486518274662
  0.4766038801695842  0.5651467185600652  0.6300295794385917
  0.9765207878088660  0.0643178833666838  0.1293773963589331
  0.9761265230050498  0.0644304682438701  0.6293684478845805
  0.9764399552591883  0.5644597512170648  0.1295415396440021
  0.9763641673016394  0.5645254037515315  0.6296921182662558
  0.1293072158331370  0.2265239009668960  0.3144132777561666
  0.1296480114757230  0.2264739491938386  0.8143383007769884
  0.1293768744016148  0.7265209734364859  0.3143174972426550
  0.1295419720484361  0.7264414141540101  0.8144594056242269
  0.6296221715123309  0.2265545705215644  0.3156103312217695
  0.6300288954314368  0.2266040140919614  0.8151461309757693
  0.6293679586133862  0.7261274068638031  0.3144308210617766
  0.6296912352302471  0.7263644969056244  0.8145249405097204
  0.3796456817312759  0.2263906069988124  0.0641312046731315
  0.3720824468583572  0.2274503379739770  0.5683207151760215
  0.3795185919200463  0.7264749456400210  0.0644068901995851
  0.3788816089585083  0.7260290152510223  0.5647722577540790
  0.8799157457941433  0.2264245770550986  0.0640826710538036
  0.8791556290298175  0.2265498063021099  0.5644393918505770
  0.8795540856549451  0.7264548838133251  0.0644118141667391
  0.8797569696555527  0.7265387307444939  0.5642630705838201
  0.1294347754010019  0.4765838184076685  0.0643260019733631
  0.1287006285063867  0.4770108984175181  0.5640687276026739
  0.1295533515099834  0.9764542224051596  0.0644347974960979
  0.1289511202464695  0.9762521472742947  0.5643936057687498
  0.6297956265954099  0.4769311132475949  0.0635898045084460
  0.6304704781696060  0.4771538509954567  0.5654019462947275
  0.6296939973158899  0.9762992514600128  0.0643997341003129
  0.6307540192646357  0.9752270042337230  0.5666153426861058
  0.3780168049832611  0.4772057418681115  0.3139101755778810
  0.3796214563930107  0.4765951517796694  0.8143729671299624
  0.3795132756009210  0.9765850797777631  0.3148983086181047
  0.3801101061864856  0.9761652231082820  0.8147308482965201
  0.8790436124356091  0.4767022493619706  0.3140190045179097
  0.8796587700177341  0.4765691954172908  0.8145066054665477
  0.8799173821880757  0.9762359265276856  0.3141879941511405
  0.8798306551079307  0.9764474067771758  0.8143980362781988
 
  0.00000000E+00  0.00000000E+00  0.00000000E+00
  0.00000000E+00  0.00000000E+00  0.00000000E+00
  0.00000000E+00  0.00000000E+00  0.00000000E+00
  0.00000000E+00  0.00000000E+00  0.00000000E+00
  0.00000000E+00  0.00000000E+00  0.00000000E+00
  0.00000000E+00  0.00000000E+00  0.00000000E+00
  0.00000000E+00  0.00000000E+00  0.00000000E+00
  0.00000000E+00  0.00000000E+00  0.00000000E+00
  0.00000000E+00  0.00000000E+00  0.00000000E+00
  0.00000000E+00  0.00000000E+00  0.00000000E+00
  0.00000000E+00  0.00000000E+00  0.00000000E+00
  0.00000000E+00  0.00000000E+00  0.00000000E+00
  0.00000000E+00  0.00000000E+00  0.00000000E+00
  0.00000000E+00  0.00000000E+00  0.00000000E+00
  0.00000000E+00  0.00000000E+00  0.00000000E+00
  0.00000000E+00  0.00000000E+00  0.00000000E+00
  0.00000000E+00  0.00000000E+00  0.00000000E+00
  0.00000000E+00  0.00000000E+00  0.00000000E+00
  0.00000000E+00  0.00000000E+00  0.00000000E+00
  0.00000000E+00  0.00000000E+00  0.00000000E+00
  0.00000000E+00  0.00000000E+00  0.00000000E+00
  0.00000000E+00  0.00000000E+00  0.00000000E+00
  0.00000000E+00  0.00000000E+00  0.00000000E+00
  0.00000000E+00  0.00000000E+00  0.00000000E+00
  0.00000000E+00  0.00000000E+00  0.00000000E+00
  0.00000000E+00  0.00000000E+00  0.00000000E+00
  0.00000000E+00  0.00000000E+00  0.00000000E+00
  0.00000000E+00  0.00000000E+00  0.00000000E+00
  0.00000000E+00  0.00000000E+00  0.00000000E+00
  0.00000000E+00  0.00000000E+00  0.00000000E+00
  0.00000000E+00  0.00000000E+00  0.00000000E+00
  0.00000000E+00  0.00000000E+00  0.00000000E+00
  0.00000000E+00  0.00000000E+00  0.00000000E+00
  0.00000000E+00  0.00000000E+00  0.00000000E+00
  0.00000000E+00  0.00000000E+00  0.00000000E+00
  0.00000000E+00  0.00000000E+00  0.00000000E+00
  0.00000000E+00  0.00000000E+00  0.00000000E+00
  0.00000000E+00  0.00000000E+00  0.00000000E+00
  0.00000000E+00  0.00000000E+00  0.00000000E+00
  0.00000000E+00  0.00000000E+00  0.00000000E+00
  0.00000000E+00  0.00000000E+00  0.00000000E+00
  0.00000000E+00  0.00000000E+00  0.00000000E+00
  0.00000000E+00  0.00000000E+00  0.00000000E+00
  0.00000000E+00  0.00000000E+00  0.00000000E+00
  0.00000000E+00  0.00000000E+00  0.00000000E+00
  0.00000000E+00  0.00000000E+00  0.00000000E+00
  0.00000000E+00  0.00000000E+00  0.00000000E+00
  0.00000000E+00  0.00000000E+00  0.00000000E+00
  0.00000000E+00  0.00000000E+00  0.00000000E+00
  0.00000000E+00  0.00000000E+00  0.00000000E+00
  0.00000000E+00  0.00000000E+00  0.00000000E+00
  0.00000000E+00  0.00000000E+00  0.00000000E+00
  0.00000000E+00  0.00000000E+00  0.00000000E+00
  0.00000000E+00  0.00000000E+00  0.00000000E+00
  0.00000000E+00  0.00000000E+00  0.00000000E+00
  0.00000000E+00  0.00000000E+00  0.00000000E+00
  0.00000000E+00  0.00000000E+00  0.00000000E+00
  0.00000000E+00  0.00000000E+00  0.00000000E+00
  0.00000000E+00  0.00000000E+00  0.00000000E+00
  0.00000000E+00  0.00000000E+00  0.00000000E+00
  0.00000000E+00  0.00000000E+00  0.00000000E+00
  0.00000000E+00  0.00000000E+00  0.00000000E+00
  0.00000000E+00  0.00000000E+00  0.00000000E+00
  0.00000000E+00  0.00000000E+00  0.00000000E+00
  0.00000000E+00  0.00000000E+00  0.00000000E+00
  0.00000000E+00  0.00000000E+00  0.00000000E+00
  0.00000000E+00  0.00000000E+00  0.00000000E+00
  0.00000000E+00  0.00000000E+00  0.00000000E+00
  0.00000000E+00  0.00000000E+00  0.00000000E+00
  0.00000000E+00  0.00000000E+00  0.00000000E+00
  0.00000000E+00  0.00000000E+00  0.00000000E+00
  0.00000000E+00  0.00000000E+00  0.00000000E+00
  0.00000000E+00  0.00000000E+00  0.00000000E+00
  0.00000000E+00  0.00000000E+00  0.00000000E+00
  0.00000000E+00  0.00000000E+00  0.00000000E+00
  0.00000000E+00  0.00000000E+00  0.00000000E+00
  0.00000000E+00  0.00000000E+00  0.00000000E+00
  0.00000000E+00  0.00000000E+00  0.00000000E+00
  0.00000000E+00  0.00000000E+00  0.00000000E+00
  0.00000000E+00  0.00000000E+00  0.00000000E+00
  0.00000000E+00  0.00000000E+00  0.00000000E+00
  0.00000000E+00  0.00000000E+00  0.00000000E+00
  0.00000000E+00  0.00000000E+00  0.00000000E+00
  0.00000000E+00  0.00000000E+00  0.00000000E+00
  0.00000000E+00  0.00000000E+00  0.00000000E+00
  0.00000000E+00  0.00000000E+00  0.00000000E+00
  0.00000000E+00  0.00000000E+00  0.00000000E+00
  0.00000000E+00  0.00000000E+00  0.00000000E+00
  0.00000000E+00  0.00000000E+00  0.00000000E+00
  0.00000000E+00  0.00000000E+00  0.00000000E+00
  0.00000000E+00  0.00000000E+00  0.00000000E+00
  0.00000000E+00  0.00000000E+00  0.00000000E+00
  0.00000000E+00  0.00000000E+00  0.00000000E+00
  0.00000000E+00  0.00000000E+00  0.00000000E+00
  0.00000000E+00  0.00000000E+00  0.00000000E+00
  0.00000000E+00  0.00000000E+00  0.00000000E+00
  0.00000000E+00  0.00000000E+00  0.00000000E+00
  0.00000000E+00  0.00000000E+00  0.00000000E+00
  0.00000000E+00  0.00000000E+00  0.00000000E+00
  0.00000000E+00  0.00000000E+00  0.00000000E+00
  0.00000000E+00  0.00000000E+00  0.00000000E+00
  0.00000000E+00  0.00000000E+00  0.00000000E+00
  0.00000000E+00  0.00000000E+00  0.00000000E+00
  0.00000000E+00  0.00000000E+00  0.00000000E+00
  0.00000000E+00  0.00000000E+00  0.00000000E+00
  0.00000000E+00  0.00000000E+00  0.00000000E+00
  0.00000000E+00  0.00000000E+00  0.00000000E+00
  0.00000000E+00  0.00000000E+00  0.00000000E+00
  0.00000000E+00  0.00000000E+00  0.00000000E+00
  0.00000000E+00  0.00000000E+00  0.00000000E+00
  0.00000000E+00  0.00000000E+00  0.00000000E+00
  0.00000000E+00  0.00000000E+00  0.00000000E+00
  0.00000000E+00  0.00000000E+00  0.00000000E+00
  0.00000000E+00  0.00000000E+00  0.00000000E+00
  0.00000000E+00  0.00000000E+00  0.00000000E+00
  0.00000000E+00  0.00000000E+00  0.00000000E+00
  0.00000000E+00  0.00000000E+00  0.00000000E+00
  0.00000000E+00  0.00000000E+00  0.00000000E+00
  0.00000000E+00  0.00000000E+00  0.00000000E+00
  0.00000000E+00  0.00000000E+00  0.00000000E+00
  0.00000000E+00  0.00000000E+00  0.00000000E+00
  0.00000000E+00  0.00000000E+00  0.00000000E+00
  0.00000000E+00  0.00000000E+00  0.00000000E+00
  0.00000000E+00  0.00000000E+00  0.00000000E+00
  0.00000000E+00  0.00000000E+00  0.00000000E+00
  0.00000000E+00  0.00000000E+00  0.00000000E+00
  0.00000000E+00  0.00000000E+00  0.00000000E+00
  0.00000000E+00  0.00000000E+00  0.00000000E+00
  0.00000000E+00  0.00000000E+00  0.00000000E+00
  0.00000000E+00  0.00000000E+00  0.00000000E+00
  0.00000000E+00  0.00000000E+00  0.00000000E+00
  0.00000000E+00  0.00000000E+00  0.00000000E+00
  0.00000000E+00  0.00000000E+00  0.00000000E+00
  0.00000000E+00  0.00000000E+00  0.00000000E+00
  0.00000000E+00  0.00000000E+00  0.00000000E+00
  0.00000000E+00  0.00000000E+00  0.00000000E+00
  0.00000000E+00  0.00000000E+00  0.00000000E+00
  0.00000000E+00  0.00000000E+00  0.00000000E+00
  0.00000000E+00  0.00000000E+00  0.00000000E+00
  0.00000000E+00  0.00000000E+00  0.00000000E+00
  0.00000000E+00  0.00000000E+00  0.00000000E+00
  0.00000000E+00  0.00000000E+00  0.00000000E+00
  0.00000000E+00  0.00000000E+00  0.00000000E+00
  0.00000000E+00  0.00000000E+00  0.00000000E+00
  0.00000000E+00  0.00000000E+00  0.00000000E+00
  0.00000000E+00  0.00000000E+00  0.00000000E+00
  0.00000000E+00  0.00000000E+00  0.00000000E+00
  0.00000000E+00  0.00000000E+00  0.00000000E+00
  0.00000000E+00  0.00000000E+00  0.00000000E+00
  0.00000000E+00  0.00000000E+00  0.00000000E+00
  0.00000000E+00  0.00000000E+00  0.00000000E+00
  0.00000000E+00  0.00000000E+00  0.00000000E+00
  0.00000000E+00  0.00000000E+00  0.00000000E+00
  0.00000000E+00  0.00000000E+00  0.00000000E+00
  0.00000000E+00  0.00000000E+00  0.00000000E+00
  0.00000000E+00  0.00000000E+00  0.00000000E+00
  0.00000000E+00  0.00000000E+00  0.00000000E+00
  0.00000000E+00  0.00000000E+00  0.00000000E+00
  0.00000000E+00  0.00000000E+00  0.00000000E+00
  0.00000000E+00  0.00000000E+00  0.00000000E+00
  0.00000000E+00  0.00000000E+00  0.00000000E+00
  0.00000000E+00  0.00000000E+00  0.00000000E+00
  0.00000000E+00  0.00000000E+00  0.00000000E+00
  0.00000000E+00  0.00000000E+00  0.00000000E+00
  0.00000000E+00  0.00000000E+00  0.00000000E+00
  0.00000000E+00  0.00000000E+00  0.00000000E+00
  0.00000000E+00  0.00000000E+00  0.00000000E+00
  0.00000000E+00  0.00000000E+00  0.00000000E+00
  0.00000000E+00  0.00000000E+00  0.00000000E+00
  0.00000000E+00  0.00000000E+00  0.00000000E+00
  0.00000000E+00  0.00000000E+00  0.00000000E+00
  0.00000000E+00  0.00000000E+00  0.00000000E+00
  0.00000000E+00  0.00000000E+00  0.00000000E+00
  0.00000000E+00  0.00000000E+00  0.00000000E+00
  0.00000000E+00  0.00000000E+00  0.00000000E+00
  0.00000000E+00  0.00000000E+00  0.00000000E+00
  0.00000000E+00  0.00000000E+00  0.00000000E+00
  0.00000000E+00  0.00000000E+00  0.00000000E+00
  0.00000000E+00  0.00000000E+00  0.00000000E+00
  0.00000000E+00  0.00000000E+00  0.00000000E+00
  0.00000000E+00  0.00000000E+00  0.00000000E+00
  0.00000000E+00  0.00000000E+00  0.00000000E+00
  0.00000000E+00  0.00000000E+00  0.00000000E+00
  0.00000000E+00  0.00000000E+00  0.00000000E+00
  0.00000000E+00  0.00000000E+00  0.00000000E+00
  0.00000000E+00  0.00000000E+00  0.00000000E+00
  0.00000000E+00  0.00000000E+00  0.00000000E+00
  0.00000000E+00  0.00000000E+00  0.00000000E+00
  0.00000000E+00  0.00000000E+00  0.00000000E+00
  0.00000000E+00  0.00000000E+00  0.00000000E+00
  0.00000000E+00  0.00000000E+00  0.00000000E+00
  0.00000000E+00  0.00000000E+00  0.00000000E+00
  0.00000000E+00  0.00000000E+00  0.00000000E+00
  0.00000000E+00  0.00000000E+00  0.00000000E+00
  0.00000000E+00  0.00000000E+00  0.00000000E+00
  0.00000000E+00  0.00000000E+00  0.00000000E+00
  0.00000000E+00  0.00000000E+00  0.00000000E+00
  0.00000000E+00  0.00000000E+00  0.00000000E+00
  0.00000000E+00  0.00000000E+00  0.00000000E+00
  0.00000000E+00  0.00000000E+00  0.00000000E+00
  0.00000000E+00  0.00000000E+00  0.00000000E+00
  0.00000000E+00  0.00000000E+00  0.00000000E+00
  0.00000000E+00  0.00000000E+00  0.00000000E+00
  0.00000000E+00  0.00000000E+00  0.00000000E+00
  0.00000000E+00  0.00000000E+00  0.00000000E+00
  0.00000000E+00  0.00000000E+00  0.00000000E+00
  0.00000000E+00  0.00000000E+00  0.00000000E+00
  0.00000000E+00  0.00000000E+00  0.00000000E+00