Li95 Ta33 O128                          
   1.00000000000000     
    11.3805060000000005    0.0067560000000000   -3.8448400000000000
     1.3117719999999999   11.3046539999999993    3.8448410000000002
    -0.0280210000000000    0.0314430000000000   18.5912410000000001
   Li   Ta   O 
    95    33   128
Direct
  0.2826546615362204  0.0987274479936318  0.4424490746553644
  0.2839579401586221  0.0975037495538729  0.9431469455761317
  0.2835529275082749  0.5971823765461153  0.9427828652563406
  0.7841277637788693  0.0981398523206494  0.4426343038314258
  0.7843180003987413  0.0983307522996171  0.9431390285805179
  0.7959778782143516  0.6015413621096073  0.4413584755502100
  0.7853666678080202  0.5966739533842826  0.9439863166301663
  0.0991094375157573  0.2893804555829078  0.3075628436477089
  0.0957787459452462  0.2842599714850422  0.8066061566784342
  0.0949496355232284  0.7905985512767231  0.3035393229056780
  0.0968134064343715  0.7832521514680906  0.8074608908479348
  0.5991146618655989  0.2842661852099653  0.3071287424994935
  0.5978252733746672  0.2838711126527897  0.8076600490641184
  0.6019561022299058  0.7853167575850222  0.3058365372859981
  0.5984955951081048  0.7843088689930937  0.8073268719327231
  0.2151052644253326  0.4033383355649249  0.0572818585800832
  0.2127092364791494  0.3907062426256971  0.5639922393590169
  0.2161347541446403  0.9021526632076800  0.0581620752051322
  0.2155008368004587  0.9037063567141672  0.5571488235518771
  0.7195243333847188  0.4037189175364233  0.0604997671857603
  0.7177242968555788  0.4022060943269352  0.5566355980860322
  0.7165353490649693  0.9024124647702152  0.0572229770442476
  0.7164665002755797  0.9032580227788216  0.5556749699498553
  0.4026487658197055  0.2164564764628523  0.1934541705784270
  0.4011712460949255  0.2140059754685311  0.6935805811206990
  0.4002649590691547  0.7168912103502834  0.1928799342137495
  0.4019603378714223  0.7164773427016442  0.6924359638585642
  0.9022165021307984  0.2191860592758132  0.1928430735468396
  0.9030558251450742  0.2174720851453031  0.6916532349049547
  0.9058647001986202  0.7132206246635135  0.1937390824629617
  0.9033588956258356  0.7154268894644673  0.6922756917829389
  0.1767653544324688  0.2228147440077279  0.1871266009921726
  0.1755505444075922  0.2163201475704923  0.6886427236007435
  0.1731704042174655  0.7159380007564167  0.1893959832716519
  0.1768933126307743  0.7189592321672791  0.6880854833543211
  0.6808225948156945  0.2218540034576222  0.1879624362799319
  0.6815532228362571  0.2182572030936711  0.6882566460926114
  0.6813223784752935  0.7198492237494918  0.1878189134563044
  0.6801100975005809  0.7201163451728334  0.6870378212174373
  0.2187743798839250  0.1800666991846853  0.0623887186574166
  0.2172450076134211  0.1741752031636352  0.5631355193254848
  0.2184068295065202  0.6779759228279332  0.0629015233577945
  0.2164451822945921  0.6840434427138931  0.5624820705710221
  0.7199772237966044  0.1799186109551130  0.0622890937462515
  0.7208220310539488  0.1786052724985083  0.5619677197015989
  0.7208596279367185  0.6773267001879333  0.0626420811726192
  0.7231233058463644  0.6792082113438340  0.5622651710903170
  0.3174715187740773  0.2859679267289792  0.3130308816367204
  0.3204990376462717  0.2804039029407264  0.8125004693437319
  0.3244216313311625  0.7882697691731266  0.3101041249905165
  0.3210303141475421  0.7796960520589238  0.8128768620873714
  0.8269880074278575  0.2838463377336140  0.3116854854340616
  0.8221634803048161  0.2819000768136277  0.8124895178160045
  0.8394573752571262  0.7683580610850953  0.3169032095679327
  0.8233050190269253  0.7808607546323643  0.8125060008936202
  0.2708914969994893  0.3251296580230871  0.4361429905529022
  0.2801252647085093  0.3221988898820669  0.9374087433153235
  0.2774603546890262  0.8363016901954268  0.4371000417805107
  0.2803774913645398  0.8211925785032150  0.9378768949845622
  0.7839666180104885  0.3229331411909797  0.4380937934727456
  0.7807247996645970  0.3239108174670022  0.9375864650640509
  0.7921343606670135  0.8192416182162816  0.4355663486524577
  0.7814143757252126  0.8213691488573573  0.9374531011795852
  0.0270258827902978  0.3422662171547728  0.4327418944311319
  0.0284254620677231  0.3484465552115807  0.9325845628623171
  0.0253128935628837  0.8375819471439527  0.4300563372397903
  0.0290521089574156  0.8473195338292072  0.9325407108187704
  0.5258381662124947  0.3472423569362277  0.4296762605884439
  0.5295209024350527  0.3479834437268892  0.9324071669202709
  0.5293501837906405  0.8500550405017080  0.4315397176977456
  0.5294208768203106  0.8476709693290871  0.9322981789333795
  0.3458836130791596  0.0324851019138848  0.3162053609649860
  0.3475409012215991  0.0281657005897245  0.8185249720473209
  0.3405685767365085  0.5268671291529188  0.3129897608540517
  0.3469321162037105  0.5286232276576968  0.8185124855489079
  0.8478949402633802  0.0274074520874947  0.3177844749108303
  0.8483977969927921  0.0287569021345320  0.8182179346316829
  0.8474692015971570  0.5278888898830942  0.3192516895296578
  0.8481931024744043  0.5291069152110026  0.8177312498166103
  0.4722424103758343  0.1526411837371171  0.0682692616108085
  0.4690836806396845  0.1505296642092375  0.5674595141157539
  0.4720668329481157  0.6522412720362496  0.0684064241227489
  0.4730076979643414  0.6537536895672815  0.5680266238489935
  0.9710458683357146  0.1539639853714974  0.0679110896110586
  0.9706381472018464  0.1528723478466816  0.5682211006061095
  0.9738188633587441  0.6509861426997929  0.0701344117282048
  0.9710146029619082  0.6525259641560623  0.5588701358852930
  0.1517618892854031  0.4726032096476800  0.1892920187809963
  0.1489685228759612  0.4718189759766176  0.6805390602845023
  0.1523431227756902  0.9730876310766163  0.1813133508385363
  0.1519381146650289  0.9701595039421278  0.6823663027810980
  0.6565280763490335  0.4705320734602907  0.1818554538706749
  0.6528189800030191  0.4720427645118690  0.6816033324249986
  0.6537007484875303  0.9703379911409726  0.1829173836366564
  0.6527054349494250  0.9716275959721727  0.6819997562414528
  0.2604507108603542  0.5920197324075716  0.4330273371042637
  0.3885503891386648  0.4688486056321253  0.1869994378503606
  0.3883461321925381  0.4692284714293464  0.6878397461514538
  0.3898197368107859  0.9708245451852235  0.1869083065680641
  0.3899216619306500  0.9679718435087423  0.6884408957659929
  0.8946660453142172  0.4731078427457263  0.1892681776739948
  0.8892300290752431  0.4691147762325798  0.6869091583980094
  0.8884184101895016  0.9702036301336889  0.1866069949713420
  0.8895205729303868  0.9687801386278565  0.6874262861924549
  0.4693993221411077  0.3896477068958220  0.0624386197850271
  0.4702867346719870  0.3848030457954934  0.5645097066120357
  0.4694293671414584  0.8895051094843680  0.0625137380497662
  0.4699495687864967  0.8897554196937492  0.5628778530880254
  0.9690098091561623  0.3907197703376113  0.0630634997398403
  0.9696378737328075  0.3899095570715119  0.5620832240896547
  0.9686923655012762  0.8899174720654486  0.0620609834966501
  0.9695207330046500  0.8878731203743868  0.5625928927752639
  0.1094480773381221  0.0337853505140941  0.3111443718282914
  0.1102401099959778  0.0301560387853783  0.8130056385108944
  0.1080129014865889  0.5319410631680839  0.3206441659949988
  0.1096943730547579  0.5306088742605155  0.8122841080148007
  0.6113721759598292  0.0310557036943422  0.3125543357628757
  0.6110164616031781  0.0310887718327635  0.8126295111287902
  0.6093921342448141  0.5315826633762128  0.3112396359096934
  0.6101424888445592  0.5321255665546687  0.8118391058929291
  0.0304504205612020  0.1078934641274927  0.4376411840980055
  0.0308788017754225  0.1111296989943469  0.9376448044802004
  0.0434620642799857  0.5974901854516972  0.4367089602161585
  0.0308779214906281  0.6105142338793925  0.9377016536839733
  0.5300429823340096  0.1112787518355134  0.4368954087508641
  0.5310097980859183  0.1108451953318479  0.9376015963699942
  0.5347009677590506  0.6101277449638047  0.4371112025753376
  0.5311940542669475  0.6105637769976937  0.9374712365815654
  0.3560183258796386  0.0221297861998693  0.0680957516727005
  0.3550474407016182  0.0202314695916002  0.5694643450013004
  0.3553286154111035  0.5215318938303852  0.0682197509247615
  0.3504149126020337  0.5210683708069013  0.5661250783092271
  0.8547626434603117  0.0223592742919507  0.0676341842268116
  0.8550399984952648  0.0206317202458806  0.5688121972944700
  0.8556935719061656  0.5213682189490356  0.0680944261325536
  0.8524125949082375  0.5204240857891449  0.5684478487291145
  0.0219208236756643  0.3541020088201208  0.1813626376246020
  0.0189176338713182  0.3540636525237844  0.6827674173740093
  0.0209221881479991  0.8566515561850636  0.1804991980666557
  0.0208607958205818  0.8544554223372884  0.6817739975827948
  0.5214499386864020  0.3556163978358100  0.1811014109625049
  0.5207583274986050  0.3562851948360688  0.6812331449247964
  0.5216322822128987  0.8559040382796823  0.1810826899581670
  0.5219949354578191  0.8548997072848792  0.6818542112500410
  0.1521962562520187  0.4458738061684215  0.4454677230469173
  0.1450172791772104  0.4791077854816663  0.9313941299258559
  0.1462742042120055  0.9792218193485596  0.4305994648437874
  0.1449964957999867  0.9788703275014683  0.9317629927856430
  0.6397036435766452  0.4781879183154274  0.4311570932576387
  0.6446074290360428  0.4792773228896152  0.9305695481848844
  0.6438187382933762  0.9797318312964691  0.4311948001333477
  0.6451145449094113  0.9794844859718097  0.9313882489903875
  0.4786129405517343  0.1450723922983812  0.3184688842197687
  0.4790790545144077  0.1449403370385056  0.8185421230674947
  0.4787636497383545  0.6455548829632676  0.3185141284167798
  0.4786620322594004  0.6449400849623359  0.8182114551901449
  0.9773862113527443  0.1439909363413250  0.3185856354518180
  0.9789763033783458  0.1446628978653877  0.8187545263808005
  0.9677746393403552  0.6460351376880098  0.3148262858908737
  0.9789591270296896  0.6454059028211958  0.8184271195606243
  0.2110427557849590  0.1536112180213181  0.3085173897470384
  0.2117437455154132  0.1504608274809485  0.8094986170607612
  0.2173538141495328  0.6634234552493297  0.3083236134350358
  0.2118884466411473  0.6506524698907583  0.8092661230390092
  0.7122283542458305  0.1514232660728538  0.3092570882733199
  0.7119657704215712  0.1516800014759596  0.8089549434727630
  0.7115996113660046  0.6504442454166650  0.3096453602597435
  0.7115268353190629  0.6517225874727259  0.8082397224826323
  0.1513613960968314  0.2076206928406492  0.4421039807601019
  0.1512379164459077  0.2123319981214422  0.9407834892459803
  0.1567215553595247  0.7243996252505838  0.4399117089433773
  0.1512727788517978  0.7121179852737356  0.9408038095068179
  0.6502414040734337  0.2123749874748029  0.4406116366217887
  0.6507718381827203  0.2128949994243996  0.9404038491367146
  0.6504344355488527  0.7132190575663344  0.4408148626883701
  0.6514014752842741  0.7119230265156986  0.9404723591461206
  0.2883619512094882  0.3486246145317011  0.1902690327010532
  0.2883547932741664  0.3475931368420930  0.6913309716667513
  0.2879631657793951  0.8514508382933954  0.1889829662617544
  0.2888504835787060  0.8476837939150954  0.6919042783727889
  0.7900598979489573  0.3512758071955489  0.1899883627455807
  0.7866851172484317  0.3494125366821876  0.6912429153309105
  0.7874917393695995  0.8502414935399685  0.1894852080469747
  0.7879289401185758  0.8487868627527462  0.6909693173177729
  0.3491069866681329  0.2885990666907290  0.0587106545467435
  0.3524178232830408  0.2819637744169086  0.5634410130174388
  0.3491252345430169  0.7883065468302348  0.0590273098387257
  0.3498626320982794  0.7882525191139678  0.5603357803751976
  0.8489275187402825  0.2889231104248040  0.0585231630605918
  0.8474849003319065  0.2878024928467653  0.5600418361549089
  0.8481576903951549  0.7894039546205747  0.0579880812683342
  0.8485016236751193  0.7880647436195360  0.5591995816278086
  0.0896194260804251  0.2864690317259715  0.0652478657885496
  0.0879435386794896  0.2778973034491869  0.5702609201113589
  0.0895673852554566  0.7861166227897272  0.0652833196112041
  0.0918452603314961  0.7846065251403047  0.5679197346645353
  0.5901467942634611  0.2856300671394507  0.0657972749614615
  0.5902229270865078  0.2840548583936169  0.5657003781643439
  0.5898698941538356  0.7854288757950130  0.0655096018668360
  0.5897138216620661  0.7848295369501912  0.5656033207541569
  0.2854619109130923  0.0915739009065959  0.1833792126432314
  0.2852723427775246  0.0877846843768424  0.6854852427834714
  0.2855607675525107  0.5903257337019596  0.1839572768666144
  0.2842994416136122  0.5900005611971437  0.6835767565170272
  0.7844821773760415  0.0908163774721373  0.1834974175495887
  0.7850855018985001  0.0894250090018929  0.6841827567063419
  0.7837774160192481  0.5904567872141087  0.1830761983029987
  0.7846466689731102  0.5902704959460863  0.6837967270110283
  0.4097000886718476  0.2146836067974434  0.4345189093064334
  0.4101612154864469  0.2153608145344137  0.9337669008254039
  0.4069577359299359  0.7121717837240880  0.4339913666485558
  0.4103921835386473  0.7150024367366470  0.9337788545812842
  0.9103112464847811  0.2126329643075664  0.4347899060898541
  0.9100018603929172  0.2157092537032455  0.9337110418873777
  0.9170170436890785  0.7137011983144248  0.4361985896584741
  0.9101606225458951  0.7155816307624079  0.9335368200819758
  0.2137071453863157  0.4122578477303946  0.3144781748658332
  0.2146154476326316  0.4099819011372077  0.8160413282711829
  0.2155820911364259  0.9152148930218615  0.3138755541745795
  0.2148229456698019  0.9094919731906614  0.8164997667416856
  0.7140978888981451  0.4100966524912550  0.3164388279417878
  0.7137194073342599  0.4106007714204551  0.8156021131682607
  0.7153741462972150  0.9111203336940221  0.3155970398590782
  0.7154607815502132  0.9103933186050170  0.8161737759759689
  0.4729665826786160  0.4163659172188048  0.3057369926846150
  0.4722893135828699  0.4166567667359757  0.8056099642798458
  0.4735943067718580  0.9161262379182205  0.3060401785797495
  0.4750884495310430  0.9156068931756778  0.8070816921449477
  0.9711744325009875  0.4126143360763592  0.3079541292528418
  0.9733137148251672  0.4165592126963418  0.8066914934978158
  0.9743300992461315  0.9169015537841432  0.3047881613860568
  0.9738255204766872  0.9156795095414481  0.8066729937990686
  0.4094978452257578  0.4733307544371996  0.4431818917526442
  0.4164499323173985  0.4743190930851640  0.9433787566566920
  0.4150219234694177  0.9734810262572253  0.4437660076328029
  0.4164146573051326  0.9744293362261729  0.9435171505664925
  0.9146586042504268  0.4683697928022710  0.4441869279319093
  0.9159339880262891  0.4750332166429843  0.9432038311834887
  0.9158836136580106  0.9724591852605755  0.4439231996775632
  0.9160933543045147  0.9750592255750519  0.9431909990378671
  0.0250743648589022  0.0859087809525363  0.1924871088640998
  0.0260662207198408  0.0827193527094536  0.6942784490468341
  0.0247067708823607  0.5853183829076443  0.1913448573969063
  0.0254657810012802  0.5836446303921505  0.6939275693173457
  0.5262482813544054  0.0845048110448943  0.1936520072311367
  0.5261533895510198  0.0831100286071162  0.6940618072112485
  0.5257721550030467  0.5842427279877782  0.1934219301677231
  0.5245492357943817  0.5833645064188886  0.6927617334025626
  0.0838385601789824  0.0267679854336791  0.0561151266948769
  0.0843643298066254  0.0240261365341325  0.5568745199864438
  0.0845386161289738  0.5265501920619755  0.0559645165688991
  0.0838367085086276  0.5196619950681338  0.5598904277359722
  0.5841271599727023  0.0263887867444694  0.0560911050745219
  0.5833596835868065  0.0257965125898778  0.5562070449469161
  0.5839849066373404  0.5264430382581935  0.0559506253128532
  0.5808001050360403  0.5251169757835825  0.5555386917340286
 
  0.00000000E+00  0.00000000E+00  0.00000000E+00
  0.00000000E+00  0.00000000E+00  0.00000000E+00
  0.00000000E+00  0.00000000E+00  0.00000000E+00
  0.00000000E+00  0.00000000E+00  0.00000000E+00
  0.00000000E+00  0.00000000E+00  0.00000000E+00
  0.00000000E+00  0.00000000E+00  0.00000000E+00
  0.00000000E+00  0.00000000E+00  0.00000000E+00
  0.00000000E+00  0.00000000E+00  0.00000000E+00
  0.00000000E+00  0.00000000E+00  0.00000000E+00
  0.00000000E+00  0.00000000E+00  0.00000000E+00
  0.00000000E+00  0.00000000E+00  0.00000000E+00
  0.00000000E+00  0.00000000E+00  0.00000000E+00
  0.00000000E+00  0.00000000E+00  0.00000000E+00
  0.00000000E+00  0.00000000E+00  0.00000000E+00
  0.00000000E+00  0.00000000E+00  0.00000000E+00
  0.00000000E+00  0.00000000E+00  0.00000000E+00
  0.00000000E+00  0.00000000E+00  0.00000000E+00
  0.00000000E+00  0.00000000E+00  0.00000000E+00
  0.00000000E+00  0.00000000E+00  0.00000000E+00
  0.00000000E+00  0.00000000E+00  0.00000000E+00
  0.00000000E+00  0.00000000E+00  0.00000000E+00
  0.00000000E+00  0.00000000E+00  0.00000000E+00
  0.00000000E+00  0.00000000E+00  0.00000000E+00
  0.00000000E+00  0.00000000E+00  0.00000000E+00
  0.00000000E+00  0.00000000E+00  0.00000000E+00
  0.00000000E+00  0.00000000E+00  0.00000000E+00
  0.00000000E+00  0.00000000E+00  0.00000000E+00
  0.00000000E+00  0.00000000E+00  0.00000000E+00
  0.00000000E+00  0.00000000E+00  0.00000000E+00
  0.00000000E+00  0.00000000E+00  0.00000000E+00
  0.00000000E+00  0.00000000E+00  0.00000000E+00
  0.00000000E+00  0.00000000E+00  0.00000000E+00
  0.00000000E+00  0.00000000E+00  0.00000000E+00
  0.00000000E+00  0.00000000E+00  0.00000000E+00
  0.00000000E+00  0.00000000E+00  0.00000000E+00
  0.00000000E+00  0.00000000E+00  0.00000000E+00
  0.00000000E+00  0.00000000E+00  0.00000000E+00
  0.00000000E+00  0.00000000E+00  0.00000000E+00
  0.00000000E+00  0.00000000E+00  0.00000000E+00
  0.00000000E+00  0.00000000E+00  0.00000000E+00
  0.00000000E+00  0.00000000E+00  0.00000000E+00
  0.00000000E+00  0.00000000E+00  0.00000000E+00
  0.00000000E+00  0.00000000E+00  0.00000000E+00
  0.00000000E+00  0.00000000E+00  0.00000000E+00
  0.00000000E+00  0.00000000E+00  0.00000000E+00
  0.00000000E+00  0.00000000E+00  0.00000000E+00
  0.00000000E+00  0.00000000E+00  0.00000000E+00
  0.00000000E+00  0.00000000E+00  0.00000000E+00
  0.00000000E+00  0.00000000E+00  0.00000000E+00
  0.00000000E+00  0.00000000E+00  0.00000000E+00
  0.00000000E+00  0.00000000E+00  0.00000000E+00
  0.00000000E+00  0.00000000E+00  0.00000000E+00
  0.00000000E+00  0.00000000E+00  0.00000000E+00
  0.00000000E+00  0.00000000E+00  0.00000000E+00
  0.00000000E+00  0.00000000E+00  0.00000000E+00
  0.00000000E+00  0.00000000E+00  0.00000000E+00
  0.00000000E+00  0.00000000E+00  0.00000000E+00
  0.00000000E+00  0.00000000E+00  0.00000000E+00
  0.00000000E+00  0.00000000E+00  0.00000000E+00
  0.00000000E+00  0.00000000E+00  0.00000000E+00
  0.00000000E+00  0.00000000E+00  0.00000000E+00
  0.00000000E+00  0.00000000E+00  0.00000000E+00
  0.00000000E+00  0.00000000E+00  0.00000000E+00
  0.00000000E+00  0.00000000E+00  0.00000000E+00
  0.00000000E+00  0.00000000E+00  0.00000000E+00
  0.00000000E+00  0.00000000E+00  0.00000000E+00
  0.00000000E+00  0.00000000E+00  0.00000000E+00
  0.00000000E+00  0.00000000E+00  0.00000000E+00
  0.00000000E+00  0.00000000E+00  0.00000000E+00
  0.00000000E+00  0.00000000E+00  0.00000000E+00
  0.00000000E+00  0.00000000E+00  0.00000000E+00
  0.00000000E+00  0.00000000E+00  0.00000000E+00
  0.00000000E+00  0.00000000E+00  0.00000000E+00
  0.00000000E+00  0.00000000E+00  0.00000000E+00
  0.00000000E+00  0.00000000E+00  0.00000000E+00
  0.00000000E+00  0.00000000E+00  0.00000000E+00
  0.00000000E+00  0.00000000E+00  0.00000000E+00
  0.00000000E+00  0.00000000E+00  0.00000000E+00
  0.00000000E+00  0.00000000E+00  0.00000000E+00
  0.00000000E+00  0.00000000E+00  0.00000000E+00
  0.00000000E+00  0.00000000E+00  0.00000000E+00
  0.00000000E+00  0.00000000E+00  0.00000000E+00
  0.00000000E+00  0.00000000E+00  0.00000000E+00
  0.00000000E+00  0.00000000E+00  0.00000000E+00
  0.00000000E+00  0.00000000E+00  0.00000000E+00
  0.00000000E+00  0.00000000E+00  0.00000000E+00
  0.00000000E+00  0.00000000E+00  0.00000000E+00
  0.00000000E+00  0.00000000E+00  0.00000000E+00
  0.00000000E+00  0.00000000E+00  0.00000000E+00
  0.00000000E+00  0.00000000E+00  0.00000000E+00
  0.00000000E+00  0.00000000E+00  0.00000000E+00
  0.00000000E+00  0.00000000E+00  0.00000000E+00
  0.00000000E+00  0.00000000E+00  0.00000000E+00
  0.00000000E+00  0.00000000E+00  0.00000000E+00
  0.00000000E+00  0.00000000E+00  0.00000000E+00
  0.00000000E+00  0.00000000E+00  0.00000000E+00
  0.00000000E+00  0.00000000E+00  0.00000000E+00
  0.00000000E+00  0.00000000E+00  0.00000000E+00
  0.00000000E+00  0.00000000E+00  0.00000000E+00
  0.00000000E+00  0.00000000E+00  0.00000000E+00
  0.00000000E+00  0.00000000E+00  0.00000000E+00
  0.00000000E+00  0.00000000E+00  0.00000000E+00
  0.00000000E+00  0.00000000E+00  0.00000000E+00
  0.00000000E+00  0.00000000E+00  0.00000000E+00
  0.00000000E+00  0.00000000E+00  0.00000000E+00
  0.00000000E+00  0.00000000E+00  0.00000000E+00
  0.00000000E+00  0.00000000E+00  0.00000000E+00
  0.00000000E+00  0.00000000E+00  0.00000000E+00
  0.00000000E+00  0.00000000E+00  0.00000000E+00
  0.00000000E+00  0.00000000E+00  0.00000000E+00
  0.00000000E+00  0.00000000E+00  0.00000000E+00
  0.00000000E+00  0.00000000E+00  0.00000000E+00
  0.00000000E+00  0.00000000E+00  0.00000000E+00
  0.00000000E+00  0.00000000E+00  0.00000000E+00
  0.00000000E+00  0.00000000E+00  0.00000000E+00
  0.00000000E+00  0.00000000E+00  0.00000000E+00
  0.00000000E+00  0.00000000E+00  0.00000000E+00
  0.00000000E+00  0.00000000E+00  0.00000000E+00
  0.00000000E+00  0.00000000E+00  0.00000000E+00
  0.00000000E+00  0.00000000E+00  0.00000000E+00
  0.00000000E+00  0.00000000E+00  0.00000000E+00
  0.00000000E+00  0.00000000E+00  0.00000000E+00
  0.00000000E+00  0.00000000E+00  0.00000000E+00
  0.00000000E+00  0.00000000E+00  0.00000000E+00
  0.00000000E+00  0.00000000E+00  0.00000000E+00
  0.00000000E+00  0.00000000E+00  0.00000000E+00
  0.00000000E+00  0.00000000E+00  0.00000000E+00
  0.00000000E+00  0.00000000E+00  0.00000000E+00
  0.00000000E+00  0.00000000E+00  0.00000000E+00
  0.00000000E+00  0.00000000E+00  0.00000000E+00
  0.00000000E+00  0.00000000E+00  0.00000000E+00
  0.00000000E+00  0.00000000E+00  0.00000000E+00
  0.00000000E+00  0.00000000E+00  0.00000000E+00
  0.00000000E+00  0.00000000E+00  0.00000000E+00
  0.00000000E+00  0.00000000E+00  0.00000000E+00
  0.00000000E+00  0.00000000E+00  0.00000000E+00
  0.00000000E+00  0.00000000E+00  0.00000000E+00
  0.00000000E+00  0.00000000E+00  0.00000000E+00
  0.00000000E+00  0.00000000E+00  0.00000000E+00
  0.00000000E+00  0.00000000E+00  0.00000000E+00
  0.00000000E+00  0.00000000E+00  0.00000000E+00
  0.00000000E+00  0.00000000E+00  0.00000000E+00
  0.00000000E+00  0.00000000E+00  0.00000000E+00
  0.00000000E+00  0.00000000E+00  0.00000000E+00
  0.00000000E+00  0.00000000E+00  0.00000000E+00
  0.00000000E+00  0.00000000E+00  0.00000000E+00
  0.00000000E+00  0.00000000E+00  0.00000000E+00
  0.00000000E+00  0.00000000E+00  0.00000000E+00
  0.00000000E+00  0.00000000E+00  0.00000000E+00
  0.00000000E+00  0.00000000E+00  0.00000000E+00
  0.00000000E+00  0.00000000E+00  0.00000000E+00
  0.00000000E+00  0.00000000E+00  0.00000000E+00
  0.00000000E+00  0.00000000E+00  0.00000000E+00
  0.00000000E+00  0.00000000E+00  0.00000000E+00
  0.00000000E+00  0.00000000E+00  0.00000000E+00
  0.00000000E+00  0.00000000E+00  0.00000000E+00
  0.00000000E+00  0.00000000E+00  0.00000000E+00
  0.00000000E+00  0.00000000E+00  0.00000000E+00
  0.00000000E+00  0.00000000E+00  0.00000000E+00
  0.00000000E+00  0.00000000E+00  0.00000000E+00
  0.00000000E+00  0.00000000E+00  0.00000000E+00
  0.00000000E+00  0.00000000E+00  0.00000000E+00
  0.00000000E+00  0.00000000E+00  0.00000000E+00
  0.00000000E+00  0.00000000E+00  0.00000000E+00
  0.00000000E+00  0.00000000E+00  0.00000000E+00
  0.00000000E+00  0.00000000E+00  0.00000000E+00
  0.00000000E+00  0.00000000E+00  0.00000000E+00
  0.00000000E+00  0.00000000E+00  0.00000000E+00
  0.00000000E+00  0.00000000E+00  0.00000000E+00
  0.00000000E+00  0.00000000E+00  0.00000000E+00
  0.00000000E+00  0.00000000E+00  0.00000000E+00
  0.00000000E+00  0.00000000E+00  0.00000000E+00
  0.00000000E+00  0.00000000E+00  0.00000000E+00
  0.00000000E+00  0.00000000E+00  0.00000000E+00
  0.00000000E+00  0.00000000E+00  0.00000000E+00
  0.00000000E+00  0.00000000E+00  0.00000000E+00
  0.00000000E+00  0.00000000E+00  0.00000000E+00
  0.00000000E+00  0.00000000E+00  0.00000000E+00
  0.00000000E+00  0.00000000E+00  0.00000000E+00
  0.00000000E+00  0.00000000E+00  0.00000000E+00
  0.00000000E+00  0.00000000E+00  0.00000000E+00
  0.00000000E+00  0.00000000E+00  0.00000000E+00
  0.00000000E+00  0.00000000E+00  0.00000000E+00
  0.00000000E+00  0.00000000E+00  0.00000000E+00
  0.00000000E+00  0.00000000E+00  0.00000000E+00
  0.00000000E+00  0.00000000E+00  0.00000000E+00
  0.00000000E+00  0.00000000E+00  0.00000000E+00
  0.00000000E+00  0.00000000E+00  0.00000000E+00
  0.00000000E+00  0.00000000E+00  0.00000000E+00
  0.00000000E+00  0.00000000E+00  0.00000000E+00
  0.00000000E+00  0.00000000E+00  0.00000000E+00
  0.00000000E+00  0.00000000E+00  0.00000000E+00
  0.00000000E+00  0.00000000E+00  0.00000000E+00
  0.00000000E+00  0.00000000E+00  0.00000000E+00
  0.00000000E+00  0.00000000E+00  0.00000000E+00
  0.00000000E+00  0.00000000E+00  0.00000000E+00
  0.00000000E+00  0.00000000E+00  0.00000000E+00
  0.00000000E+00  0.00000000E+00  0.00000000E+00
  0.00000000E+00  0.00000000E+00  0.00000000E+00
  0.00000000E+00  0.00000000E+00  0.00000000E+00
  0.00000000E+00  0.00000000E+00  0.00000000E+00
  0.00000000E+00  0.00000000E+00  0.00000000E+00
  0.00000000E+00  0.00000000E+00  0.00000000E+00
  0.00000000E+00  0.00000000E+00  0.00000000E+00
  0.00000000E+00  0.00000000E+00  0.00000000E+00
  0.00000000E+00  0.00000000E+00  0.00000000E+00
  0.00000000E+00  0.00000000E+00  0.00000000E+00
  0.00000000E+00  0.00000000E+00  0.00000000E+00
  0.00000000E+00  0.00000000E+00  0.00000000E+00
  0.00000000E+00  0.00000000E+00  0.00000000E+00
  0.00000000E+00  0.00000000E+00  0.00000000E+00
  0.00000000E+00  0.00000000E+00  0.00000000E+00
  0.00000000E+00  0.00000000E+00  0.00000000E+00
  0.00000000E+00  0.00000000E+00  0.00000000E+00
  0.00000000E+00  0.00000000E+00  0.00000000E+00
  0.00000000E+00  0.00000000E+00  0.00000000E+00
  0.00000000E+00  0.00000000E+00  0.00000000E+00
  0.00000000E+00  0.00000000E+00  0.00000000E+00
  0.00000000E+00  0.00000000E+00  0.00000000E+00
  0.00000000E+00  0.00000000E+00  0.00000000E+00
  0.00000000E+00  0.00000000E+00  0.00000000E+00
  0.00000000E+00  0.00000000E+00  0.00000000E+00
  0.00000000E+00  0.00000000E+00  0.00000000E+00
  0.00000000E+00  0.00000000E+00  0.00000000E+00
  0.00000000E+00  0.00000000E+00  0.00000000E+00
  0.00000000E+00  0.00000000E+00  0.00000000E+00
  0.00000000E+00  0.00000000E+00  0.00000000E+00
  0.00000000E+00  0.00000000E+00  0.00000000E+00
  0.00000000E+00  0.00000000E+00  0.00000000E+00
  0.00000000E+00  0.00000000E+00  0.00000000E+00
  0.00000000E+00  0.00000000E+00  0.00000000E+00
  0.00000000E+00  0.00000000E+00  0.00000000E+00
  0.00000000E+00  0.00000000E+00  0.00000000E+00
  0.00000000E+00  0.00000000E+00  0.00000000E+00
  0.00000000E+00  0.00000000E+00  0.00000000E+00
  0.00000000E+00  0.00000000E+00  0.00000000E+00
  0.00000000E+00  0.00000000E+00  0.00000000E+00
  0.00000000E+00  0.00000000E+00  0.00000000E+00
  0.00000000E+00  0.00000000E+00  0.00000000E+00
  0.00000000E+00  0.00000000E+00  0.00000000E+00
  0.00000000E+00  0.00000000E+00  0.00000000E+00
  0.00000000E+00  0.00000000E+00  0.00000000E+00
  0.00000000E+00  0.00000000E+00  0.00000000E+00
  0.00000000E+00  0.00000000E+00  0.00000000E+00
  0.00000000E+00  0.00000000E+00  0.00000000E+00
  0.00000000E+00  0.00000000E+00  0.00000000E+00
  0.00000000E+00  0.00000000E+00  0.00000000E+00
  0.00000000E+00  0.00000000E+00  0.00000000E+00
  0.00000000E+00  0.00000000E+00  0.00000000E+00
  0.00000000E+00  0.00000000E+00  0.00000000E+00
  0.00000000E+00  0.00000000E+00  0.00000000E+00
  0.00000000E+00  0.00000000E+00  0.00000000E+00
  0.00000000E+00  0.00000000E+00  0.00000000E+00
  0.00000000E+00  0.00000000E+00  0.00000000E+00
  0.00000000E+00  0.00000000E+00  0.00000000E+00
  0.00000000E+00  0.00000000E+00  0.00000000E+00
