Li95 Ta32 O128                          
   1.00000000000000     
    11.3805060000000005    0.0067560000000000   -3.8448400000000000
     1.3117719999999999   11.3046539999999993    3.8448410000000002
    -0.0280210000000000    0.0314430000000000   18.5912410000000001
   Li   Ta   O 
    95    32   128
Direct
  0.2840540826124354  0.0971321456397902  0.4429937191828159
  0.2840799861234942  0.0972541234669606  0.9430865656277092
  0.2841357237614659  0.5974578962163122  0.9429283348632325
  0.7840290672593682  0.0978172562049409  0.4432429646203033
  0.7840604679005452  0.0974283466817596  0.9429081874199952
  0.7839125276357493  0.5965026658599726  0.4431938129801409
  0.7842777986593035  0.5973914062547721  0.9432763181885591
  0.0971675539393146  0.2845899401713154  0.3072479432931416
  0.0971482614432304  0.2840901175151274  0.8070233878695987
  0.0978747962660407  0.7830341540289609  0.3073245087874881
  0.0973556618323030  0.7840173870893921  0.8069851875224359
  0.5978369691249057  0.2842398555029675  0.3068932375233047
  0.5982545511993180  0.2838767329723026  0.8074262008864537
  0.5983397135939654  0.7837077697751553  0.3073358810222047
  0.5972760768745928  0.7840335492114505  0.8068758247378724
  0.2159981880777408  0.4024700764889317  0.0572525118667855
  0.2162232513345401  0.4074348676258595  0.5538360532964077
  0.2161033517174218  0.9026552970284527  0.0571483473227090
  0.2155957787618661  0.9010372880379620  0.5562100162462542
  0.7164800769127098  0.4025771459156005  0.0575988202817896
  0.7148695933203300  0.4029235180139921  0.5572748707768582
  0.7160122359568533  0.9025239761795092  0.0572147426219729
  0.7159557604632454  0.9024520457028515  0.5571257937381588
  0.4026194938771894  0.2158616858301343  0.1932353581223651
  0.4030319330070000  0.2162652011323232  0.6929576452014601
  0.4027749540297236  0.7157852982961899  0.1929443926795145
  0.4029864802748975  0.7151665815393358  0.6930601377959107
  0.9029391868496432  0.2160648435892369  0.1932773323152475
  0.9015530837015717  0.2162141378617335  0.6927141750987431
  0.9030261664347279  0.7158422646579297  0.1929987245107370
  0.9021595643755091  0.7159986264753968  0.6928720995225177
  0.1778033794430556  0.2192156060318311  0.1877953800577288
  0.1786216757444379  0.2200237428591976  0.6874565185161217
  0.1784267929772625  0.7194268773663097  0.1861060893958921
  0.1785396699930217  0.7188159444530697  0.6873945621142212
  0.6782040793585509  0.2198551773564006  0.1872846689140246
  0.6752187735263959  0.2216416340576259  0.6872628112755734
  0.6783474933349041  0.7195877185057853  0.1872051195898479
  0.6773548152127375  0.7194255095817539  0.6872965520845398
  0.2195539120897720  0.1780578421849484  0.0627483588296940
  0.2188558401260039  0.1800455111535371  0.5623593353517293
  0.2198242881784580  0.6778822470570702  0.0623083582322153
  0.2208225790080292  0.6747003096117083  0.5622532790871588
  0.7197545576835722  0.1781886552031366  0.0625491402277376
  0.7186267085725362  0.1788360718366562  0.5630976265902277
  0.7196921634137539  0.6780921158816682  0.0626480624336452
  0.7184761692323747  0.6773138671515468  0.5622327290108444
  0.3219033745995858  0.2807569543887638  0.3126431445078666
  0.3212826012111449  0.2795994911392725  0.8131647377280444
  0.3194385193234979  0.7773035899989864  0.3129101064890492
  0.3221183828151339  0.7805838815408066  0.8124822521684578
  0.8224380188276399  0.2809495069132666  0.3122970076141414
  0.8220777922805027  0.2805943803760798  0.8125909740730037
  0.8227543840610139  0.7796216181926141  0.3126673369538082
  0.8217695104528389  0.7804103081787375  0.8125947738615196
  0.2799344994691069  0.3217762617569306  0.4369867091319080
  0.2804111278297299  0.3217859030556127  0.9375953232913119
  0.2804540946048064  0.8070167420337029  0.4375749884593816
  0.2806384684602747  0.8219714560135145  0.9374075554088179
  0.7804610360006521  0.3236219040594293  0.4375297738943758
  0.7809967794982597  0.3216914989286721  0.9376907931292777
  0.7805837540088589  0.8199254486498333  0.4374568091295856
  0.7803915028896498  0.8219828512223515  0.9374600120212264
  0.0266231966335440  0.3481585441357353  0.4306271856275643
  0.0289578766022913  0.3477841417432685  0.9321804854651603
  0.0268060400970143  0.8482892281403025  0.4316867628755006
  0.0287538824534863  0.8477463117829913  0.9319783256946295
  0.5302734330267498  0.3476841339487748  0.4323119310273782
  0.5295247065572042  0.3476244964374970  0.9323295485669547
  0.5306016735464425  0.8481779634239075  0.4317628847869983
  0.5288480943639655  0.8476497377316576  0.9320324925340628
  0.3482790681787407  0.0273881391306432  0.3189708168688981
  0.3476607822843079  0.0287533962271667  0.8178775982978266
  0.3476972422551228  0.5291034765880056  0.3189503252525157
  0.3479832604300199  0.5289482889411516  0.8183509110249432
  0.8478634546617911  0.0292684476157916  0.3179629485390620
  0.8473312234320929  0.0293555997539841  0.8178171669888314
  0.8482030823396940  0.5293081744615620  0.3179581193786873
  0.8479980188110403  0.5288694988135632  0.8181943169721606
  0.4712974589514332  0.1522102673191341  0.0681089278624469
  0.4715887757776613  0.1540216340057015  0.5680196627448240
  0.4713797533344177  0.6521071991995910  0.0682146295057393
  0.4671278395572926  0.6513738324849427  0.5662667482873616
  0.9715469521781870  0.1523824469461204  0.0682572908369607
  0.9707670051900692  0.1522826741279388  0.5682257421894477
  0.9713136607577439  0.6520053384381583  0.0683453517517378
  0.9707566797998268  0.6521971050330464  0.5675390652308749
  0.1522758838909013  0.4713858833780549  0.1824167958522480
  0.1526556024010333  0.4707876754195368  0.6821719756872895
  0.1525087120191273  0.9708076963632095  0.1822539110506440
  0.1520806671845421  0.9713062309544824  0.6817116577894211
  0.6525280874542219  0.4710235727337349  0.1818858275537281
  0.6514185324341639  0.4716158793474108  0.6815796743393250
  0.6524978121607603  0.9710595538022702  0.1820334727012707
  0.6516335195857863  0.9713722363927886  0.6814580423076180
  0.3896479865666578  0.4688344557333153  0.1876350785496115
  0.3903381108654571  0.4670374805713067  0.6892407228884494
  0.3897522658068411  0.9688719263033718  0.1878287216559755
  0.3891628647286325  0.9689373313496219  0.6870907045328636
  0.8898818450330452  0.4690832035261323  0.1880312743832846
  0.8894148895177025  0.4690472672144494  0.6877881350024566
  0.8895433999298206  0.9692419513445216  0.1876385300106733
  0.8890001225690014  0.9690397182131250  0.6876797701093054
  0.4688914920822782  0.3893643655268946  0.0623360928072572
  0.4657893765742216  0.3932123066112680  0.5608520238222781
  0.4689903799115172  0.8894558884459371  0.0624419143180219
  0.4683557499843545  0.8891291926694862  0.5616964740221846
  0.9690260946909817  0.3895142021987681  0.0625856732288028
  0.9687821100132794  0.3894737605578911  0.5624491631553141
  0.9687851729939752  0.8896588220378376  0.0623390690719035
  0.9688025283502100  0.8891966029210323  0.5626398622373472
  0.1110499905371327  0.0300972231578100  0.3130823743664735
  0.1103699778869824  0.0310648946611281  0.8123214367530451
  0.1122935662700399  0.5329943397138948  0.3131180851479698
  0.1106560090057016  0.5310498748493444  0.8124872294027625
  0.6110674513263916  0.0314085300629827  0.3123088889376220
  0.6102867300660435  0.0308991023263658  0.8123102148369057
  0.6109416497862199  0.5311811405694726  0.3121548218484804
  0.6113178881301664  0.5308803386099683  0.8128552497711965
  0.0308766411771302  0.1106185761757246  0.4377387979619556
  0.0311195806605369  0.1106040792776781  0.9376397673364636
  0.0337056234430264  0.6106380251780621  0.4376801928174032
  0.0311120595112229  0.6105451366608889  0.9377177540417492
  0.5312837848559724  0.1108205432957305  0.4377805997577084
  0.5311032720976669  0.1104514043384484  0.9376480460191416
  0.5286140441082097  0.6116989545531339  0.4369726047788092
  0.5313518151394305  0.6105681986989993  0.9377999661995418
  0.3553812067667792  0.0211024246151297  0.0687224945554732
  0.3549397619621146  0.0208046957970964  0.5682919044144512
  0.3551151774222845  0.5207800477031057  0.0685186040181947
  0.3572536075679409  0.5189601933133829  0.5718855550307751
  0.8551107477288156  0.0214027411354465  0.0685184269810009
  0.8548358472857274  0.0209367459580463  0.5688318392646181
  0.8555202014393615  0.5209349534233922  0.0685797156466421
  0.8552500204464906  0.5210660824754925  0.5690290321143721
  0.0213415402484500  0.3546553379940747  0.1814612844699468
  0.0210090897548909  0.3553571992878162  0.6815907212498686
  0.0207005036346715  0.8557533431538502  0.1810879318409064
  0.0206507709341821  0.8551001772598781  0.6815560714912365
  0.5210918091718142  0.3548531953330141  0.1812258451929196
  0.5217938800666104  0.3538669370094709  0.6818761874314916
  0.5212457085881965  0.8551705660379056  0.1813514633102642
  0.5206054715404704  0.8551114476288220  0.6808875514128800
  0.1376643853341193  0.4763486462143973  0.4304384209763725
  0.1450559929709954  0.4790331424743357  0.9314632107123515
  0.1439979604628547  0.9799342670936753  0.4316018882021098
  0.1448007874417172  0.9790107403730062  0.9313526803307184
  0.6471451969726019  0.4788479457550494  0.4310330114803946
  0.6455591996687602  0.4792165251164278  0.9319123451351246
  0.6454848743512329  0.9795635819068167  0.4313672951534571
  0.6448487931773030  0.9787501007487478  0.9313284420214529
  0.4796697249574393  0.1453150099497762  0.3187329956671405
  0.4789572943829370  0.1445217415457520  0.8187911598335660
  0.4791618127656392  0.6448088347392655  0.3181540604802322
  0.4793991615439026  0.6449151799657216  0.8188976078798973
  0.9787867242094066  0.1450846180008014  0.3187873390449667
  0.9788936500956567  0.1450615313511250  0.8186710878769503
  0.9793936471803946  0.6463342992701016  0.3181796771375289
  0.9791155010504582  0.6449430490017676  0.8187451246743791
  0.2121829258332539  0.1505692681368487  0.3095108192237319
  0.2118930011048761  0.1510469936175483  0.8092205550076201
  0.2094628538777172  0.6539578442894083  0.3036548791423996
  0.2121327795727979  0.6511694213693744  0.8092192350995191
  0.7124304392921488  0.1516361763101557  0.3089638056137076
  0.7118872508996432  0.1510303740539456  0.8092630860991719
  0.7119716713875235  0.6515820081331682  0.3081043000962325
  0.7124780659612924  0.6513136206594439  0.8094177479302687
  0.1509459073165615  0.2120428482690642  0.4410248300802522
  0.1512682591972165  0.2119662360468126  0.9409868182746379
  0.1442520575810207  0.7188727136225097  0.4406006000942568
  0.1512881951799372  0.7120576497580728  0.9408981261042229
  0.6515490501005843  0.2125668044682314  0.4413627370593787
  0.6514200465795170  0.2117049227225323  0.9410207942681481
  0.6526890441859692  0.7102942395837815  0.4406813605777913
  0.6513077357543509  0.7121937243844130  0.9410916417725588
  0.2881189705289700  0.3486604521555847  0.1910827304837994
  0.2885626321775661  0.3473813379294057  0.6925470128910476
  0.2882929475328737  0.8490260963741036  0.1906480046255083
  0.2879763229871841  0.8486482747865409  0.6908446477602936
  0.7879096470446711  0.3488738710950372  0.1904343548467295
  0.7877432160517230  0.3491134442185100  0.6910174229753494
  0.7880733029078542  0.8491258221782516  0.1907189626441408
  0.7878010050827697  0.8487733561641804  0.6910327086723100
  0.3487781173262618  0.2879134890046942  0.0590449599906009
  0.3470593720301096  0.2901875261912537  0.5576646845665891
  0.3488095878161985  0.7880849873789302  0.0590375142663504
  0.3488265875000067  0.7870705590579803  0.5586145098975877
  0.8490495819420545  0.2879187448266904  0.0590789313919231
  0.8487628472992483  0.2877769636936733  0.5598591302175535
  0.8487938329478197  0.7881167478065478  0.0590990080760179
  0.8486008305754495  0.7878667377094573  0.5591055058592005
  0.0898959535339046  0.2851303565842116  0.0660200341788126
  0.0893558441272688  0.2849696626124896  0.5662071741812156
  0.0895733626776831  0.7852962906021119  0.0657446686830596
  0.0895614631086730  0.7847332840629662  0.5665677143562178
  0.5897152046743770  0.2851328615153648  0.0657417760593049
  0.5885892116684985  0.2863710067988805  0.5668228754356051
  0.5897804798609982  0.7851490572674891  0.0659225112092159
  0.5902101137202678  0.7857363649128288  0.5658878031578567
  0.2852589381001636  0.0896209650278550  0.1841910572611667
  0.2850244579090528  0.0898840668568965  0.6836882618160658
  0.2851421877513545  0.5899040747313435  0.1833027879046867
  0.2858595889312099  0.5885936219693306  0.6852130914476575
  0.7849992409076094  0.0901164884455810  0.1838158159508225
  0.7847015814919942  0.0897907107341709  0.6842294968781388
  0.7849208585452629  0.5899960768042760  0.1838045293414226
  0.7850730714485366  0.5898807259183840  0.6841831880989488
  0.4102444828589782  0.2151095647739183  0.4339749129733192
  0.4102768758482469  0.2146129368001723  0.9342175606831731
  0.4158668864832720  0.7221612395264216  0.4325790716449873
  0.4103535866268047  0.7149930044444375  0.9340607820351252
  0.9097459145921647  0.2150969529504465  0.4340707997697351
  0.9103430817374019  0.2149577846954358  0.9340817646848976
  0.9085975638663655  0.7124512431746410  0.4339554090708546
  0.9103661779727332  0.7150000385762567  0.9341091573695977
  0.2154339869353450  0.4107188041159233  0.3165909905915711
  0.2149613059942581  0.4100005731670109  0.8163347465260173
  0.2146522387502330  0.9092500640937544  0.3162865914393080
  0.2148326795647506  0.9103163112651842  0.8159181341244803
  0.7150051283139973  0.4103645737105168  0.3153837421016803
  0.7158068564020468  0.4101694326188223  0.8164538636929777
  0.7153341089196417  0.9104589321283143  0.3159632790140847
  0.7147357430377710  0.9101590640890009  0.8159616592861241
  0.4747460451481444  0.4159574885899104  0.3061455016311072
  0.4761188040836473  0.4151451341802002  0.8079966153958651
  0.4751010075279183  0.9169938062288168  0.3062443565801445
  0.4739382278308426  0.9160746968948246  0.8060802327971643
  0.9732365007111312  0.4156552140569545  0.3060456780773180
  0.9742169808498033  0.4161149960572459  0.8065996965939988
  0.9734225173761004  0.9168409382015241  0.3063448286304649
  0.9739743904371636  0.9162167922035067  0.8064817178608052
  0.4232758578364013  0.4708931586653406  0.4425693604790766
  0.4162196306118346  0.4742683106739776  0.9436207639053578
  0.4171024364489995  0.9753660135202153  0.4434645954690524
  0.4160716221960712  0.9740722164040889  0.9436418456270488
  0.9140054158581918  0.4735976838889258  0.4439212317926504
  0.9164663048072157  0.4741543060367093  0.9436829562543849
  0.9159174630180402  0.9740095046087163  0.4437535001531785
  0.9159497433318649  0.9743621636994249  0.9435797727579924
  0.0262674132329010  0.0837463582568745  0.1940104369823530
  0.0255985317545395  0.0838311210718317  0.6936843971022952
  0.0254105633888528  0.5827872971881831  0.1937480437233461
  0.0259638788695185  0.5838771557481905  0.6938086095986549
  0.5262877180562953  0.0843080520824984  0.1935113171306142
  0.5256020340590908  0.0840243177965334  0.6935053308083425
  0.5257636005767807  0.5838459460540548  0.1932222885666022
  0.5264397794891380  0.5835355114268026  0.6944942257609128
  0.0840069412220217  0.0259043527516809  0.0563848383573742
  0.0832117767499341  0.0259168228482594  0.5565051333627338
  0.0841777853699028  0.5259239531949973  0.0564374656618867
  0.0846939988839424  0.5256579793027711  0.5563745931092896
  0.5840562181288647  0.0257150791812890  0.0563787335818233
  0.5840156248437438  0.0262694527384895  0.5564426667244646
  0.5838673739535665  0.5258594948898221  0.0564929341395697
  0.5824739667681271  0.5279185190698854  0.5560648589146666
 
  0.00000000E+00  0.00000000E+00  0.00000000E+00
  0.00000000E+00  0.00000000E+00  0.00000000E+00
  0.00000000E+00  0.00000000E+00  0.00000000E+00
  0.00000000E+00  0.00000000E+00  0.00000000E+00
  0.00000000E+00  0.00000000E+00  0.00000000E+00
  0.00000000E+00  0.00000000E+00  0.00000000E+00
  0.00000000E+00  0.00000000E+00  0.00000000E+00
  0.00000000E+00  0.00000000E+00  0.00000000E+00
  0.00000000E+00  0.00000000E+00  0.00000000E+00
  0.00000000E+00  0.00000000E+00  0.00000000E+00
  0.00000000E+00  0.00000000E+00  0.00000000E+00
  0.00000000E+00  0.00000000E+00  0.00000000E+00
  0.00000000E+00  0.00000000E+00  0.00000000E+00
  0.00000000E+00  0.00000000E+00  0.00000000E+00
  0.00000000E+00  0.00000000E+00  0.00000000E+00
  0.00000000E+00  0.00000000E+00  0.00000000E+00
  0.00000000E+00  0.00000000E+00  0.00000000E+00
  0.00000000E+00  0.00000000E+00  0.00000000E+00
  0.00000000E+00  0.00000000E+00  0.00000000E+00
  0.00000000E+00  0.00000000E+00  0.00000000E+00
  0.00000000E+00  0.00000000E+00  0.00000000E+00
  0.00000000E+00  0.00000000E+00  0.00000000E+00
  0.00000000E+00  0.00000000E+00  0.00000000E+00
  0.00000000E+00  0.00000000E+00  0.00000000E+00
  0.00000000E+00  0.00000000E+00  0.00000000E+00
  0.00000000E+00  0.00000000E+00  0.00000000E+00
  0.00000000E+00  0.00000000E+00  0.00000000E+00
  0.00000000E+00  0.00000000E+00  0.00000000E+00
  0.00000000E+00  0.00000000E+00  0.00000000E+00
  0.00000000E+00  0.00000000E+00  0.00000000E+00
  0.00000000E+00  0.00000000E+00  0.00000000E+00
  0.00000000E+00  0.00000000E+00  0.00000000E+00
  0.00000000E+00  0.00000000E+00  0.00000000E+00
  0.00000000E+00  0.00000000E+00  0.00000000E+00
  0.00000000E+00  0.00000000E+00  0.00000000E+00
  0.00000000E+00  0.00000000E+00  0.00000000E+00
  0.00000000E+00  0.00000000E+00  0.00000000E+00
  0.00000000E+00  0.00000000E+00  0.00000000E+00
  0.00000000E+00  0.00000000E+00  0.00000000E+00
  0.00000000E+00  0.00000000E+00  0.00000000E+00
  0.00000000E+00  0.00000000E+00  0.00000000E+00
  0.00000000E+00  0.00000000E+00  0.00000000E+00
  0.00000000E+00  0.00000000E+00  0.00000000E+00
  0.00000000E+00  0.00000000E+00  0.00000000E+00
  0.00000000E+00  0.00000000E+00  0.00000000E+00
  0.00000000E+00  0.00000000E+00  0.00000000E+00
  0.00000000E+00  0.00000000E+00  0.00000000E+00
  0.00000000E+00  0.00000000E+00  0.00000000E+00
  0.00000000E+00  0.00000000E+00  0.00000000E+00
  0.00000000E+00  0.00000000E+00  0.00000000E+00
  0.00000000E+00  0.00000000E+00  0.00000000E+00
  0.00000000E+00  0.00000000E+00  0.00000000E+00
  0.00000000E+00  0.00000000E+00  0.00000000E+00
  0.00000000E+00  0.00000000E+00  0.00000000E+00
  0.00000000E+00  0.00000000E+00  0.00000000E+00
  0.00000000E+00  0.00000000E+00  0.00000000E+00
  0.00000000E+00  0.00000000E+00  0.00000000E+00
  0.00000000E+00  0.00000000E+00  0.00000000E+00
  0.00000000E+00  0.00000000E+00  0.00000000E+00
  0.00000000E+00  0.00000000E+00  0.00000000E+00
  0.00000000E+00  0.00000000E+00  0.00000000E+00
  0.00000000E+00  0.00000000E+00  0.00000000E+00
  0.00000000E+00  0.00000000E+00  0.00000000E+00
  0.00000000E+00  0.00000000E+00  0.00000000E+00
  0.00000000E+00  0.00000000E+00  0.00000000E+00
  0.00000000E+00  0.00000000E+00  0.00000000E+00
  0.00000000E+00  0.00000000E+00  0.00000000E+00
  0.00000000E+00  0.00000000E+00  0.00000000E+00
  0.00000000E+00  0.00000000E+00  0.00000000E+00
  0.00000000E+00  0.00000000E+00  0.00000000E+00
  0.00000000E+00  0.00000000E+00  0.00000000E+00
  0.00000000E+00  0.00000000E+00  0.00000000E+00
  0.00000000E+00  0.00000000E+00  0.00000000E+00
  0.00000000E+00  0.00000000E+00  0.00000000E+00
  0.00000000E+00  0.00000000E+00  0.00000000E+00
  0.00000000E+00  0.00000000E+00  0.00000000E+00
  0.00000000E+00  0.00000000E+00  0.00000000E+00
  0.00000000E+00  0.00000000E+00  0.00000000E+00
  0.00000000E+00  0.00000000E+00  0.00000000E+00
  0.00000000E+00  0.00000000E+00  0.00000000E+00
  0.00000000E+00  0.00000000E+00  0.00000000E+00
  0.00000000E+00  0.00000000E+00  0.00000000E+00
  0.00000000E+00  0.00000000E+00  0.00000000E+00
  0.00000000E+00  0.00000000E+00  0.00000000E+00
  0.00000000E+00  0.00000000E+00  0.00000000E+00
  0.00000000E+00  0.00000000E+00  0.00000000E+00
  0.00000000E+00  0.00000000E+00  0.00000000E+00
  0.00000000E+00  0.00000000E+00  0.00000000E+00
  0.00000000E+00  0.00000000E+00  0.00000000E+00
  0.00000000E+00  0.00000000E+00  0.00000000E+00
  0.00000000E+00  0.00000000E+00  0.00000000E+00
  0.00000000E+00  0.00000000E+00  0.00000000E+00
  0.00000000E+00  0.00000000E+00  0.00000000E+00
  0.00000000E+00  0.00000000E+00  0.00000000E+00
  0.00000000E+00  0.00000000E+00  0.00000000E+00
  0.00000000E+00  0.00000000E+00  0.00000000E+00
  0.00000000E+00  0.00000000E+00  0.00000000E+00
  0.00000000E+00  0.00000000E+00  0.00000000E+00
  0.00000000E+00  0.00000000E+00  0.00000000E+00
  0.00000000E+00  0.00000000E+00  0.00000000E+00
  0.00000000E+00  0.00000000E+00  0.00000000E+00
  0.00000000E+00  0.00000000E+00  0.00000000E+00
  0.00000000E+00  0.00000000E+00  0.00000000E+00
  0.00000000E+00  0.00000000E+00  0.00000000E+00
  0.00000000E+00  0.00000000E+00  0.00000000E+00
  0.00000000E+00  0.00000000E+00  0.00000000E+00
  0.00000000E+00  0.00000000E+00  0.00000000E+00
  0.00000000E+00  0.00000000E+00  0.00000000E+00
  0.00000000E+00  0.00000000E+00  0.00000000E+00
  0.00000000E+00  0.00000000E+00  0.00000000E+00
  0.00000000E+00  0.00000000E+00  0.00000000E+00
  0.00000000E+00  0.00000000E+00  0.00000000E+00
  0.00000000E+00  0.00000000E+00  0.00000000E+00
  0.00000000E+00  0.00000000E+00  0.00000000E+00
  0.00000000E+00  0.00000000E+00  0.00000000E+00
  0.00000000E+00  0.00000000E+00  0.00000000E+00
  0.00000000E+00  0.00000000E+00  0.00000000E+00
  0.00000000E+00  0.00000000E+00  0.00000000E+00
  0.00000000E+00  0.00000000E+00  0.00000000E+00
  0.00000000E+00  0.00000000E+00  0.00000000E+00
  0.00000000E+00  0.00000000E+00  0.00000000E+00
  0.00000000E+00  0.00000000E+00  0.00000000E+00
  0.00000000E+00  0.00000000E+00  0.00000000E+00
  0.00000000E+00  0.00000000E+00  0.00000000E+00
  0.00000000E+00  0.00000000E+00  0.00000000E+00
  0.00000000E+00  0.00000000E+00  0.00000000E+00
  0.00000000E+00  0.00000000E+00  0.00000000E+00
  0.00000000E+00  0.00000000E+00  0.00000000E+00
  0.00000000E+00  0.00000000E+00  0.00000000E+00
  0.00000000E+00  0.00000000E+00  0.00000000E+00
  0.00000000E+00  0.00000000E+00  0.00000000E+00
  0.00000000E+00  0.00000000E+00  0.00000000E+00
  0.00000000E+00  0.00000000E+00  0.00000000E+00
  0.00000000E+00  0.00000000E+00  0.00000000E+00
  0.00000000E+00  0.00000000E+00  0.00000000E+00
  0.00000000E+00  0.00000000E+00  0.00000000E+00
  0.00000000E+00  0.00000000E+00  0.00000000E+00
  0.00000000E+00  0.00000000E+00  0.00000000E+00
  0.00000000E+00  0.00000000E+00  0.00000000E+00
  0.00000000E+00  0.00000000E+00  0.00000000E+00
  0.00000000E+00  0.00000000E+00  0.00000000E+00
  0.00000000E+00  0.00000000E+00  0.00000000E+00
  0.00000000E+00  0.00000000E+00  0.00000000E+00
  0.00000000E+00  0.00000000E+00  0.00000000E+00
  0.00000000E+00  0.00000000E+00  0.00000000E+00
  0.00000000E+00  0.00000000E+00  0.00000000E+00
  0.00000000E+00  0.00000000E+00  0.00000000E+00
  0.00000000E+00  0.00000000E+00  0.00000000E+00
  0.00000000E+00  0.00000000E+00  0.00000000E+00
  0.00000000E+00  0.00000000E+00  0.00000000E+00
  0.00000000E+00  0.00000000E+00  0.00000000E+00
  0.00000000E+00  0.00000000E+00  0.00000000E+00
  0.00000000E+00  0.00000000E+00  0.00000000E+00
  0.00000000E+00  0.00000000E+00  0.00000000E+00
  0.00000000E+00  0.00000000E+00  0.00000000E+00
  0.00000000E+00  0.00000000E+00  0.00000000E+00
  0.00000000E+00  0.00000000E+00  0.00000000E+00
  0.00000000E+00  0.00000000E+00  0.00000000E+00
  0.00000000E+00  0.00000000E+00  0.00000000E+00
  0.00000000E+00  0.00000000E+00  0.00000000E+00
  0.00000000E+00  0.00000000E+00  0.00000000E+00
  0.00000000E+00  0.00000000E+00  0.00000000E+00
  0.00000000E+00  0.00000000E+00  0.00000000E+00
  0.00000000E+00  0.00000000E+00  0.00000000E+00
  0.00000000E+00  0.00000000E+00  0.00000000E+00
  0.00000000E+00  0.00000000E+00  0.00000000E+00
  0.00000000E+00  0.00000000E+00  0.00000000E+00
  0.00000000E+00  0.00000000E+00  0.00000000E+00
  0.00000000E+00  0.00000000E+00  0.00000000E+00
  0.00000000E+00  0.00000000E+00  0.00000000E+00
  0.00000000E+00  0.00000000E+00  0.00000000E+00
  0.00000000E+00  0.00000000E+00  0.00000000E+00
  0.00000000E+00  0.00000000E+00  0.00000000E+00
  0.00000000E+00  0.00000000E+00  0.00000000E+00
  0.00000000E+00  0.00000000E+00  0.00000000E+00
  0.00000000E+00  0.00000000E+00  0.00000000E+00
  0.00000000E+00  0.00000000E+00  0.00000000E+00
  0.00000000E+00  0.00000000E+00  0.00000000E+00
  0.00000000E+00  0.00000000E+00  0.00000000E+00
  0.00000000E+00  0.00000000E+00  0.00000000E+00
  0.00000000E+00  0.00000000E+00  0.00000000E+00
  0.00000000E+00  0.00000000E+00  0.00000000E+00
  0.00000000E+00  0.00000000E+00  0.00000000E+00
  0.00000000E+00  0.00000000E+00  0.00000000E+00
  0.00000000E+00  0.00000000E+00  0.00000000E+00
  0.00000000E+00  0.00000000E+00  0.00000000E+00
  0.00000000E+00  0.00000000E+00  0.00000000E+00
  0.00000000E+00  0.00000000E+00  0.00000000E+00
  0.00000000E+00  0.00000000E+00  0.00000000E+00
  0.00000000E+00  0.00000000E+00  0.00000000E+00
  0.00000000E+00  0.00000000E+00  0.00000000E+00
  0.00000000E+00  0.00000000E+00  0.00000000E+00
  0.00000000E+00  0.00000000E+00  0.00000000E+00
  0.00000000E+00  0.00000000E+00  0.00000000E+00
  0.00000000E+00  0.00000000E+00  0.00000000E+00
  0.00000000E+00  0.00000000E+00  0.00000000E+00
  0.00000000E+00  0.00000000E+00  0.00000000E+00
  0.00000000E+00  0.00000000E+00  0.00000000E+00
  0.00000000E+00  0.00000000E+00  0.00000000E+00
  0.00000000E+00  0.00000000E+00  0.00000000E+00
  0.00000000E+00  0.00000000E+00  0.00000000E+00
  0.00000000E+00  0.00000000E+00  0.00000000E+00
  0.00000000E+00  0.00000000E+00  0.00000000E+00
  0.00000000E+00  0.00000000E+00  0.00000000E+00
  0.00000000E+00  0.00000000E+00  0.00000000E+00
  0.00000000E+00  0.00000000E+00  0.00000000E+00
  0.00000000E+00  0.00000000E+00  0.00000000E+00
  0.00000000E+00  0.00000000E+00  0.00000000E+00
  0.00000000E+00  0.00000000E+00  0.00000000E+00
  0.00000000E+00  0.00000000E+00  0.00000000E+00
  0.00000000E+00  0.00000000E+00  0.00000000E+00
  0.00000000E+00  0.00000000E+00  0.00000000E+00
  0.00000000E+00  0.00000000E+00  0.00000000E+00
  0.00000000E+00  0.00000000E+00  0.00000000E+00
  0.00000000E+00  0.00000000E+00  0.00000000E+00
  0.00000000E+00  0.00000000E+00  0.00000000E+00
  0.00000000E+00  0.00000000E+00  0.00000000E+00
  0.00000000E+00  0.00000000E+00  0.00000000E+00
  0.00000000E+00  0.00000000E+00  0.00000000E+00
  0.00000000E+00  0.00000000E+00  0.00000000E+00
  0.00000000E+00  0.00000000E+00  0.00000000E+00
  0.00000000E+00  0.00000000E+00  0.00000000E+00
  0.00000000E+00  0.00000000E+00  0.00000000E+00
  0.00000000E+00  0.00000000E+00  0.00000000E+00
  0.00000000E+00  0.00000000E+00  0.00000000E+00
  0.00000000E+00  0.00000000E+00  0.00000000E+00
  0.00000000E+00  0.00000000E+00  0.00000000E+00
  0.00000000E+00  0.00000000E+00  0.00000000E+00
  0.00000000E+00  0.00000000E+00  0.00000000E+00
  0.00000000E+00  0.00000000E+00  0.00000000E+00
  0.00000000E+00  0.00000000E+00  0.00000000E+00
  0.00000000E+00  0.00000000E+00  0.00000000E+00
  0.00000000E+00  0.00000000E+00  0.00000000E+00
  0.00000000E+00  0.00000000E+00  0.00000000E+00
  0.00000000E+00  0.00000000E+00  0.00000000E+00
  0.00000000E+00  0.00000000E+00  0.00000000E+00
  0.00000000E+00  0.00000000E+00  0.00000000E+00
  0.00000000E+00  0.00000000E+00  0.00000000E+00
  0.00000000E+00  0.00000000E+00  0.00000000E+00
  0.00000000E+00  0.00000000E+00  0.00000000E+00
  0.00000000E+00  0.00000000E+00  0.00000000E+00
  0.00000000E+00  0.00000000E+00  0.00000000E+00
  0.00000000E+00  0.00000000E+00  0.00000000E+00
  0.00000000E+00  0.00000000E+00  0.00000000E+00
  0.00000000E+00  0.00000000E+00  0.00000000E+00
  0.00000000E+00  0.00000000E+00  0.00000000E+00
  0.00000000E+00  0.00000000E+00  0.00000000E+00
  0.00000000E+00  0.00000000E+00  0.00000000E+00
  0.00000000E+00  0.00000000E+00  0.00000000E+00
  0.00000000E+00  0.00000000E+00  0.00000000E+00
  0.00000000E+00  0.00000000E+00  0.00000000E+00
  0.00000000E+00  0.00000000E+00  0.00000000E+00
  0.00000000E+00  0.00000000E+00  0.00000000E+00
  0.00000000E+00  0.00000000E+00  0.00000000E+00
  0.00000000E+00  0.00000000E+00  0.00000000E+00
