Li95 Ta32 O128                          
   1.00000000000000     
    11.3805060000000005    0.0067560000000000   -3.8448400000000000
     1.3117719999999999   11.3046539999999993    3.8448410000000002
    -0.0280210000000000    0.0314430000000000   18.5912410000000001
   Li   Ta   O 
    95    32   128
Direct
  0.2840959999999981  0.0977460000000008  0.4428699999999992
  0.2840959999999981  0.0977460000000008  0.9428699999999992
  0.2840959999999981  0.5977460000000008  0.9428699999999992
  0.7840959999999981  0.0977460000000008  0.4428699999999992
  0.7840959999999981  0.0977460000000008  0.9428699999999992
  0.7840959999999981  0.5977460000000008  0.4428699999999992
  0.7840959999999981  0.5977460000000008  0.9428699999999992
  0.0977460000000008  0.2840959999999981  0.3071300000000008
  0.0977460000000008  0.2840959999999981  0.8071300000000008
  0.0977460000000008  0.7840959999999981  0.3071300000000008
  0.0977460000000008  0.7840959999999981  0.8071300000000008
  0.5977460000000008  0.2840959999999981  0.3071300000000008
  0.5977460000000008  0.2840959999999981  0.8071300000000008
  0.5977460000000008  0.7840959999999981  0.3071300000000008
  0.5977460000000008  0.7840959999999981  0.8071300000000008
  0.2159040000000019  0.4022539999999992  0.0571300000000008
  0.2159040000000019  0.4022539999999992  0.5571300000000008
  0.2159040000000019  0.9022539999999992  0.0571300000000008
  0.2159049999999993  0.9022539999999992  0.5571300000000008
  0.7159040000000019  0.4022539999999992  0.0571300000000008
  0.7159040000000019  0.4022539999999992  0.5571300000000008
  0.7159049999999993  0.9022539999999992  0.0571300000000008
  0.7159049999999993  0.9022539999999992  0.5571300000000008
  0.4022539999999992  0.2159040000000019  0.1928699999999992
  0.4022539999999992  0.2159040000000019  0.6928699999999992
  0.4022539999999992  0.7159049999999993  0.1928699999999992
  0.4022539999999992  0.7159049999999993  0.6928699999999992
  0.9022539999999992  0.2159049999999993  0.1928699999999992
  0.9022539999999992  0.2159049999999993  0.6928699999999992
  0.9022539999999992  0.7159049999999993  0.1928699999999992
  0.9022539999999992  0.7159049999999993  0.6928699999999992
  0.1775659999999988  0.2194649999999996  0.1874200000000030
  0.1775659999999988  0.2194649999999996  0.6874200000000030
  0.1775650000000013  0.7194649999999996  0.1874200000000030
  0.1775650000000013  0.7194649999999996  0.6874200000000030
  0.6775659999999988  0.2194649999999996  0.1874200000000030
  0.6775659999999988  0.2194649999999996  0.6874200000000030
  0.6775659999999988  0.7194649999999996  0.1874200000000030
  0.6775659999999988  0.7194649999999996  0.6874200000000030
  0.2194649999999996  0.1775659999999988  0.0625799999999970
  0.2194649999999996  0.1775659999999988  0.5625799999999970
  0.2194649999999996  0.6775659999999988  0.0625799999999970
  0.2194649999999996  0.6775659999999988  0.5625799999999970
  0.7194649999999996  0.1775650000000013  0.0625799999999970
  0.7194649999999996  0.1775650000000013  0.5625799999999970
  0.7194649999999996  0.6775659999999988  0.0625799999999970
  0.7194649999999996  0.6775650000000013  0.5625799999999970
  0.3224349999999987  0.2805350000000004  0.3125799999999970
  0.3224349999999987  0.2805350000000004  0.8125799999999970
  0.3224349999999987  0.7805350000000004  0.3125799999999970
  0.3224349999999987  0.7805350000000004  0.8125799999999970
  0.8224349999999987  0.2805350000000004  0.3125799999999970
  0.8224349999999987  0.2805350000000004  0.8125799999999970
  0.8224349999999987  0.7805350000000004  0.3125799999999970
  0.8224349999999987  0.7805350000000004  0.8125799999999970
  0.2805350000000004  0.3224349999999987  0.4374200000000030
  0.2805350000000004  0.3224349999999987  0.9374200000000030
  0.2805350000000004  0.8224349999999987  0.4374200000000030
  0.2805350000000004  0.8224349999999987  0.9374200000000030
  0.7805350000000004  0.3224349999999987  0.4374200000000030
  0.7805350000000004  0.3224349999999987  0.9374200000000030
  0.7805350000000004  0.8224349999999987  0.4374200000000030
  0.7805350000000004  0.8224349999999987  0.9374200000000030
  0.0290469999999985  0.3475809999999981  0.4321539999999970
  0.0290469999999985  0.3475809999999981  0.9321539999999970
  0.0290469999999985  0.8475809999999981  0.4321539999999970
  0.0290469999999985  0.8475809999999981  0.9321539999999970
  0.5290469999999985  0.3475809999999981  0.4321539999999970
  0.5290469999999985  0.3475809999999981  0.9321539999999970
  0.5290460000000010  0.8475809999999981  0.4321539999999970
  0.5290469999999985  0.8475809999999981  0.9321539999999970
  0.3475809999999981  0.0290469999999985  0.3178460000000030
  0.3475809999999981  0.0290469999999985  0.8178460000000030
  0.3475809999999981  0.5290460000000010  0.3178470000000004
  0.3475809999999981  0.5290460000000010  0.8178470000000004
  0.8475809999999981  0.0290469999999985  0.3178460000000030
  0.8475809999999981  0.0290469999999985  0.8178460000000030
  0.8475809999999981  0.5290460000000010  0.3178470000000004
  0.8475809999999981  0.5290460000000010  0.8178470000000004
  0.4709530000000015  0.1524190000000019  0.0678460000000030
  0.4709530000000015  0.1524190000000019  0.5678460000000030
  0.4709530000000015  0.6524190000000019  0.0678460000000030
  0.4709530000000015  0.6524190000000019  0.5678460000000030
  0.9709530000000015  0.1524190000000019  0.0678460000000030
  0.9709530000000015  0.1524190000000019  0.5678460000000030
  0.9709539999999990  0.6524190000000019  0.0678460000000030
  0.9709539999999990  0.6524190000000019  0.5678460000000030
  0.1524190000000019  0.4709530000000015  0.1821539999999970
  0.1524190000000019  0.4709530000000015  0.6821539999999970
  0.1524190000000019  0.9709539999999990  0.1821539999999970
  0.1524190000000019  0.9709539999999990  0.6821539999999970
  0.6524190000000019  0.4709530000000015  0.1821539999999970
  0.6524190000000019  0.4709530000000015  0.6821539999999970
  0.6524190000000019  0.9709539999999990  0.1821539999999970
  0.6524190000000019  0.9709539999999990  0.6821539999999970
  0.3894739999999999  0.4688969999999983  0.1876359999999977
  0.3894739999999999  0.4688969999999983  0.6876359999999977
  0.3894710000000003  0.9689079999999990  0.1876329999999982
  0.3894710000000003  0.9689079999999990  0.6876329999999982
  0.8894760000000019  0.4688960000000009  0.1876370000000023
  0.8894769999999994  0.4688960000000009  0.6876370000000023
  0.8894739999999999  0.9689070000000015  0.1876340000000027
  0.8894730000000024  0.9689070000000015  0.6876340000000027
  0.4688999999999979  0.3894710000000003  0.0623649999999998
  0.4688999999999979  0.3894710000000003  0.5623659999999973
  0.4688980000000029  0.8894769999999994  0.0623629999999977
  0.4688980000000029  0.8894769999999994  0.5623629999999977
  0.9689059999999969  0.3894710000000003  0.0623670000000018
  0.9689059999999969  0.3894710000000003  0.5623670000000018
  0.9689040000000020  0.8894760000000019  0.0623649999999998
  0.9689040000000020  0.8894760000000019  0.5623640000000023
  0.1105269999999976  0.0311009999999996  0.3123649999999998
  0.1105269999999976  0.0311019999999971  0.8123649999999998
  0.1105280000000022  0.5310910000000035  0.3123670000000018
  0.1105280000000022  0.5310910000000035  0.8123670000000018
  0.6105230000000006  0.0311030000000017  0.3123629999999977
  0.6105230000000006  0.0311030000000017  0.8123629999999977
  0.6105250000000026  0.5310920000000010  0.3123659999999973
  0.6105250000000026  0.5310920000000010  0.8123659999999973
  0.0310989999999975  0.1105280000000022  0.4376340000000027
  0.0310989999999975  0.1105289999999997  0.9376340000000027
  0.0311009999999996  0.6105220000000031  0.4376359999999977
  0.0311009999999996  0.6105220000000031  0.9376359999999977
  0.5310929999999985  0.1105289999999997  0.4376329999999982
  0.5310929999999985  0.1105299999999971  0.9376329999999982
  0.5310950000000005  0.6105230000000006  0.4376350000000002
  0.5310950000000005  0.6105230000000006  0.9376350000000002
  0.3551390000000012  0.0210799999999978  0.0686839999999975
  0.3551390000000012  0.0210799999999978  0.5686839999999975
  0.3551379999999966  0.5210819999999998  0.0686830000000000
  0.3551379999999966  0.5210819999999998  0.5686830000000000
  0.8551379999999966  0.0210810000000023  0.0686830000000000
  0.8551379999999966  0.0210810000000023  0.5686830000000000
  0.8551379999999966  0.5210829999999973  0.0686820000000026
  0.8551369999999991  0.5210829999999973  0.5686820000000026
  0.0210810000000023  0.3551390000000012  0.1813160000000025
  0.0210810000000023  0.3551390000000012  0.6813160000000025
  0.0210810000000023  0.8551379999999966  0.1813170000000000
  0.0210810000000023  0.8551379999999966  0.6813170000000000
  0.5210819999999998  0.3551390000000012  0.1813170000000000
  0.5210819999999998  0.3551390000000012  0.6813170000000000
  0.5210819999999998  0.8551369999999991  0.1813179999999974
  0.5210829999999973  0.8551369999999991  0.6813179999999974
  0.1448609999999988  0.4789200000000022  0.4313160000000025
  0.1448609999999988  0.4789200000000022  0.9313160000000025
  0.1448609999999988  0.9789180000000002  0.4313170000000000
  0.1448609999999988  0.9789180000000002  0.9313170000000000
  0.6448620000000034  0.4789200000000022  0.4313170000000000
  0.6448620000000034  0.4789200000000022  0.9313170000000000
  0.6448630000000009  0.9789180000000002  0.4313179999999974
  0.6448630000000009  0.9789180000000002  0.9313179999999974
  0.4789200000000022  0.1448609999999988  0.3186839999999975
  0.4789200000000022  0.1448609999999988  0.8186839999999975
  0.4789189999999977  0.6448630000000009  0.3186830000000000
  0.4789189999999977  0.6448630000000009  0.8186830000000000
  0.9789180000000002  0.1448609999999988  0.3186830000000000
  0.9789189999999977  0.1448609999999988  0.8186830000000000
  0.9789180000000002  0.6448630000000009  0.3186820000000026
  0.9789180000000002  0.6448630000000009  0.8186820000000026
  0.2119339999999994  0.1512540000000016  0.3090770000000020
  0.2119339999999994  0.1512540000000016  0.8090770000000020
  0.2119369999999989  0.6512590000000031  0.3090759999999975
  0.2119369999999989  0.6512590000000031  0.8090759999999975
  0.7119349999999969  0.1512549999999990  0.3090770000000020
  0.7119349999999969  0.1512549999999990  0.8090770000000020
  0.7119380000000035  0.6512590000000031  0.3090759999999975
  0.7119380000000035  0.6512590000000031  0.8090759999999975
  0.1512549999999990  0.2119339999999994  0.4409229999999980
  0.1512549999999990  0.2119339999999994  0.9409229999999980
  0.1512570000000011  0.7119360000000015  0.4409229999999980
  0.1512570000000011  0.7119360000000015  0.9409229999999980
  0.6512570000000011  0.2119360000000015  0.4409240000000025
  0.6512570000000011  0.2119360000000015  0.9409240000000025
  0.6512579999999986  0.7119369999999989  0.4409240000000025
  0.6512590000000031  0.7119369999999989  0.9409240000000025
  0.2880660000000006  0.3487459999999984  0.1909229999999980
  0.2880660000000006  0.3487459999999984  0.6909229999999980
  0.2880639999999985  0.8487420000000014  0.1909240000000025
  0.2880639999999985  0.8487420000000014  0.6909240000000025
  0.7880660000000006  0.3487450000000010  0.1909229999999980
  0.7880660000000006  0.3487450000000010  0.6909229999999980
  0.7880630000000011  0.8487409999999969  0.1909240000000025
  0.7880630000000011  0.8487409999999969  0.6909240000000025
  0.3487450000000010  0.2880660000000006  0.0590770000000020
  0.3487450000000010  0.2880660000000006  0.5590770000000020
  0.3487440000000035  0.7880650000000031  0.0590770000000020
  0.3487440000000035  0.7880650000000031  0.5590770000000020
  0.8487429999999989  0.2880650000000031  0.0590759999999975
  0.8487429999999989  0.2880650000000031  0.5590759999999975
  0.8487420000000014  0.7880639999999985  0.0590759999999975
  0.8487420000000014  0.7880639999999985  0.5590759999999975
  0.0896279999999976  0.2850340000000031  0.0659009999999967
  0.0896279999999976  0.2850340000000031  0.5659009999999967
  0.0896290000000022  0.7850329999999985  0.0659009999999967
  0.0896290000000022  0.7850329999999985  0.5659009999999967
  0.5896299999999997  0.2850320000000011  0.0659009999999967
  0.5896309999999971  0.2850320000000011  0.5659009999999967
  0.5896320000000017  0.7850310000000036  0.0659009999999967
  0.5896329999999992  0.7850299999999990  0.5659009999999967
  0.2850340000000031  0.0896270000000001  0.1840990000000033
  0.2850340000000031  0.0896270000000001  0.6840990000000033
  0.2850309999999965  0.5896320000000017  0.1840990000000033
  0.2850309999999965  0.5896320000000017  0.6840990000000033
  0.7850340000000031  0.0896279999999976  0.1840990000000033
  0.7850340000000031  0.0896279999999976  0.6840990000000033
  0.7850299999999990  0.5896329999999992  0.1840990000000033
  0.7850299999999990  0.5896329999999992  0.6840990000000033
  0.4103729999999999  0.2149659999999969  0.4341000000000008
  0.4103729999999999  0.2149659999999969  0.9341000000000008
  0.4103709999999978  0.7149679999999989  0.4340990000000033
  0.4103709999999978  0.7149679999999989  0.9340990000000033
  0.9103700000000003  0.2149679999999989  0.4340990000000033
  0.9103700000000003  0.2149679999999989  0.9340990000000033
  0.9103679999999983  0.7149700000000010  0.4340990000000033
  0.9103679999999983  0.7149700000000010  0.9340990000000033
  0.2149659999999969  0.4103729999999999  0.3158999999999992
  0.2149659999999969  0.4103729999999999  0.8158999999999992
  0.2149679999999989  0.9103690000000029  0.3159009999999967
  0.2149679999999989  0.9103690000000029  0.8159009999999967
  0.7149670000000015  0.4103720000000024  0.3159009999999967
  0.7149670000000015  0.4103720000000024  0.8159009999999967
  0.7149700000000010  0.9103670000000008  0.3159009999999967
  0.7149700000000010  0.9103670000000008  0.8159009999999967
  0.4742000000000033  0.4159670000000020  0.3063720000000032
  0.4742000000000033  0.4159670000000020  0.8063720000000032
  0.4742010000000008  0.9159640000000024  0.3063730000000007
  0.4742010000000008  0.9159640000000024  0.8063730000000007
  0.9741989999999987  0.4159670000000020  0.3063709999999986
  0.9741989999999987  0.4159670000000020  0.8063709999999986
  0.9742000000000033  0.9159640000000024  0.3063720000000032
  0.9742000000000033  0.9159640000000024  0.8063720000000032
  0.4159659999999974  0.4742000000000033  0.4436279999999968
  0.4159659999999974  0.4742000000000033  0.9436279999999968
  0.4159670000000020  0.9741980000000012  0.4436290000000014
  0.4159670000000020  0.9741989999999987  0.9436290000000014
  0.9159640000000024  0.4742010000000008  0.4436269999999993
  0.9159640000000024  0.4742010000000008  0.9436269999999993
  0.9159649999999999  0.9741989999999987  0.4436279999999968
  0.9159649999999999  0.9741989999999987  0.9436279999999968
  0.0257999999999967  0.0840329999999980  0.1936279999999968
  0.0257999999999967  0.0840340000000026  0.6936279999999968
  0.0257999999999967  0.5840359999999976  0.1936269999999993
  0.0257999999999967  0.5840359999999976  0.6936269999999993
  0.5258010000000013  0.0840329999999980  0.1936290000000014
  0.5258010000000013  0.0840329999999980  0.6936290000000014
  0.5257999999999967  0.5840359999999976  0.1936269999999993
  0.5257999999999967  0.5840359999999976  0.6936269999999993
  0.0840340000000026  0.0257999999999967  0.0563720000000032
  0.0840340000000026  0.0257999999999967  0.5563720000000032
  0.0840340000000026  0.5258019999999988  0.0563709999999986
  0.0840340000000026  0.5258019999999988  0.5563709999999986
  0.5840359999999976  0.0257989999999992  0.0563730000000007
  0.5840359999999976  0.0257989999999992  0.5563730000000007
  0.5840350000000001  0.5258010000000013  0.0563720000000032
  0.5840350000000001  0.5258010000000013  0.5563720000000032
 
  0.00000000E+00  0.00000000E+00  0.00000000E+00
  0.00000000E+00  0.00000000E+00  0.00000000E+00
  0.00000000E+00  0.00000000E+00  0.00000000E+00
  0.00000000E+00  0.00000000E+00  0.00000000E+00
  0.00000000E+00  0.00000000E+00  0.00000000E+00
  0.00000000E+00  0.00000000E+00  0.00000000E+00
  0.00000000E+00  0.00000000E+00  0.00000000E+00
  0.00000000E+00  0.00000000E+00  0.00000000E+00
  0.00000000E+00  0.00000000E+00  0.00000000E+00
  0.00000000E+00  0.00000000E+00  0.00000000E+00
  0.00000000E+00  0.00000000E+00  0.00000000E+00
  0.00000000E+00  0.00000000E+00  0.00000000E+00
  0.00000000E+00  0.00000000E+00  0.00000000E+00
  0.00000000E+00  0.00000000E+00  0.00000000E+00
  0.00000000E+00  0.00000000E+00  0.00000000E+00
  0.00000000E+00  0.00000000E+00  0.00000000E+00
  0.00000000E+00  0.00000000E+00  0.00000000E+00
  0.00000000E+00  0.00000000E+00  0.00000000E+00
  0.00000000E+00  0.00000000E+00  0.00000000E+00
  0.00000000E+00  0.00000000E+00  0.00000000E+00
  0.00000000E+00  0.00000000E+00  0.00000000E+00
  0.00000000E+00  0.00000000E+00  0.00000000E+00
  0.00000000E+00  0.00000000E+00  0.00000000E+00
  0.00000000E+00  0.00000000E+00  0.00000000E+00
  0.00000000E+00  0.00000000E+00  0.00000000E+00
  0.00000000E+00  0.00000000E+00  0.00000000E+00
  0.00000000E+00  0.00000000E+00  0.00000000E+00
  0.00000000E+00  0.00000000E+00  0.00000000E+00
  0.00000000E+00  0.00000000E+00  0.00000000E+00
  0.00000000E+00  0.00000000E+00  0.00000000E+00
  0.00000000E+00  0.00000000E+00  0.00000000E+00
  0.00000000E+00  0.00000000E+00  0.00000000E+00
  0.00000000E+00  0.00000000E+00  0.00000000E+00
  0.00000000E+00  0.00000000E+00  0.00000000E+00
  0.00000000E+00  0.00000000E+00  0.00000000E+00
  0.00000000E+00  0.00000000E+00  0.00000000E+00
  0.00000000E+00  0.00000000E+00  0.00000000E+00
  0.00000000E+00  0.00000000E+00  0.00000000E+00
  0.00000000E+00  0.00000000E+00  0.00000000E+00
  0.00000000E+00  0.00000000E+00  0.00000000E+00
  0.00000000E+00  0.00000000E+00  0.00000000E+00
  0.00000000E+00  0.00000000E+00  0.00000000E+00
  0.00000000E+00  0.00000000E+00  0.00000000E+00
  0.00000000E+00  0.00000000E+00  0.00000000E+00
  0.00000000E+00  0.00000000E+00  0.00000000E+00
  0.00000000E+00  0.00000000E+00  0.00000000E+00
  0.00000000E+00  0.00000000E+00  0.00000000E+00
  0.00000000E+00  0.00000000E+00  0.00000000E+00
  0.00000000E+00  0.00000000E+00  0.00000000E+00
  0.00000000E+00  0.00000000E+00  0.00000000E+00
  0.00000000E+00  0.00000000E+00  0.00000000E+00
  0.00000000E+00  0.00000000E+00  0.00000000E+00
  0.00000000E+00  0.00000000E+00  0.00000000E+00
  0.00000000E+00  0.00000000E+00  0.00000000E+00
  0.00000000E+00  0.00000000E+00  0.00000000E+00
  0.00000000E+00  0.00000000E+00  0.00000000E+00
  0.00000000E+00  0.00000000E+00  0.00000000E+00
  0.00000000E+00  0.00000000E+00  0.00000000E+00
  0.00000000E+00  0.00000000E+00  0.00000000E+00
  0.00000000E+00  0.00000000E+00  0.00000000E+00
  0.00000000E+00  0.00000000E+00  0.00000000E+00
  0.00000000E+00  0.00000000E+00  0.00000000E+00
  0.00000000E+00  0.00000000E+00  0.00000000E+00
  0.00000000E+00  0.00000000E+00  0.00000000E+00
  0.00000000E+00  0.00000000E+00  0.00000000E+00
  0.00000000E+00  0.00000000E+00  0.00000000E+00
  0.00000000E+00  0.00000000E+00  0.00000000E+00
  0.00000000E+00  0.00000000E+00  0.00000000E+00
  0.00000000E+00  0.00000000E+00  0.00000000E+00
  0.00000000E+00  0.00000000E+00  0.00000000E+00
  0.00000000E+00  0.00000000E+00  0.00000000E+00
  0.00000000E+00  0.00000000E+00  0.00000000E+00
  0.00000000E+00  0.00000000E+00  0.00000000E+00
  0.00000000E+00  0.00000000E+00  0.00000000E+00
  0.00000000E+00  0.00000000E+00  0.00000000E+00
  0.00000000E+00  0.00000000E+00  0.00000000E+00
  0.00000000E+00  0.00000000E+00  0.00000000E+00
  0.00000000E+00  0.00000000E+00  0.00000000E+00
  0.00000000E+00  0.00000000E+00  0.00000000E+00
  0.00000000E+00  0.00000000E+00  0.00000000E+00
  0.00000000E+00  0.00000000E+00  0.00000000E+00
  0.00000000E+00  0.00000000E+00  0.00000000E+00
  0.00000000E+00  0.00000000E+00  0.00000000E+00
  0.00000000E+00  0.00000000E+00  0.00000000E+00
  0.00000000E+00  0.00000000E+00  0.00000000E+00
  0.00000000E+00  0.00000000E+00  0.00000000E+00
  0.00000000E+00  0.00000000E+00  0.00000000E+00
  0.00000000E+00  0.00000000E+00  0.00000000E+00
  0.00000000E+00  0.00000000E+00  0.00000000E+00
  0.00000000E+00  0.00000000E+00  0.00000000E+00
  0.00000000E+00  0.00000000E+00  0.00000000E+00
  0.00000000E+00  0.00000000E+00  0.00000000E+00
  0.00000000E+00  0.00000000E+00  0.00000000E+00
  0.00000000E+00  0.00000000E+00  0.00000000E+00
  0.00000000E+00  0.00000000E+00  0.00000000E+00
  0.00000000E+00  0.00000000E+00  0.00000000E+00
  0.00000000E+00  0.00000000E+00  0.00000000E+00
  0.00000000E+00  0.00000000E+00  0.00000000E+00
  0.00000000E+00  0.00000000E+00  0.00000000E+00
  0.00000000E+00  0.00000000E+00  0.00000000E+00
  0.00000000E+00  0.00000000E+00  0.00000000E+00
  0.00000000E+00  0.00000000E+00  0.00000000E+00
  0.00000000E+00  0.00000000E+00  0.00000000E+00
  0.00000000E+00  0.00000000E+00  0.00000000E+00
  0.00000000E+00  0.00000000E+00  0.00000000E+00
  0.00000000E+00  0.00000000E+00  0.00000000E+00
  0.00000000E+00  0.00000000E+00  0.00000000E+00
  0.00000000E+00  0.00000000E+00  0.00000000E+00
  0.00000000E+00  0.00000000E+00  0.00000000E+00
  0.00000000E+00  0.00000000E+00  0.00000000E+00
  0.00000000E+00  0.00000000E+00  0.00000000E+00
  0.00000000E+00  0.00000000E+00  0.00000000E+00
  0.00000000E+00  0.00000000E+00  0.00000000E+00
  0.00000000E+00  0.00000000E+00  0.00000000E+00
  0.00000000E+00  0.00000000E+00  0.00000000E+00
  0.00000000E+00  0.00000000E+00  0.00000000E+00
  0.00000000E+00  0.00000000E+00  0.00000000E+00
  0.00000000E+00  0.00000000E+00  0.00000000E+00
  0.00000000E+00  0.00000000E+00  0.00000000E+00
  0.00000000E+00  0.00000000E+00  0.00000000E+00
  0.00000000E+00  0.00000000E+00  0.00000000E+00
  0.00000000E+00  0.00000000E+00  0.00000000E+00
  0.00000000E+00  0.00000000E+00  0.00000000E+00
  0.00000000E+00  0.00000000E+00  0.00000000E+00
  0.00000000E+00  0.00000000E+00  0.00000000E+00
  0.00000000E+00  0.00000000E+00  0.00000000E+00
  0.00000000E+00  0.00000000E+00  0.00000000E+00
  0.00000000E+00  0.00000000E+00  0.00000000E+00
  0.00000000E+00  0.00000000E+00  0.00000000E+00
  0.00000000E+00  0.00000000E+00  0.00000000E+00
  0.00000000E+00  0.00000000E+00  0.00000000E+00
  0.00000000E+00  0.00000000E+00  0.00000000E+00
  0.00000000E+00  0.00000000E+00  0.00000000E+00
  0.00000000E+00  0.00000000E+00  0.00000000E+00
  0.00000000E+00  0.00000000E+00  0.00000000E+00
  0.00000000E+00  0.00000000E+00  0.00000000E+00
  0.00000000E+00  0.00000000E+00  0.00000000E+00
  0.00000000E+00  0.00000000E+00  0.00000000E+00
  0.00000000E+00  0.00000000E+00  0.00000000E+00
  0.00000000E+00  0.00000000E+00  0.00000000E+00
  0.00000000E+00  0.00000000E+00  0.00000000E+00
  0.00000000E+00  0.00000000E+00  0.00000000E+00
  0.00000000E+00  0.00000000E+00  0.00000000E+00
  0.00000000E+00  0.00000000E+00  0.00000000E+00
  0.00000000E+00  0.00000000E+00  0.00000000E+00
  0.00000000E+00  0.00000000E+00  0.00000000E+00
  0.00000000E+00  0.00000000E+00  0.00000000E+00
  0.00000000E+00  0.00000000E+00  0.00000000E+00
  0.00000000E+00  0.00000000E+00  0.00000000E+00
  0.00000000E+00  0.00000000E+00  0.00000000E+00
  0.00000000E+00  0.00000000E+00  0.00000000E+00
  0.00000000E+00  0.00000000E+00  0.00000000E+00
  0.00000000E+00  0.00000000E+00  0.00000000E+00
  0.00000000E+00  0.00000000E+00  0.00000000E+00
  0.00000000E+00  0.00000000E+00  0.00000000E+00
  0.00000000E+00  0.00000000E+00  0.00000000E+00
  0.00000000E+00  0.00000000E+00  0.00000000E+00
  0.00000000E+00  0.00000000E+00  0.00000000E+00
  0.00000000E+00  0.00000000E+00  0.00000000E+00
  0.00000000E+00  0.00000000E+00  0.00000000E+00
  0.00000000E+00  0.00000000E+00  0.00000000E+00
  0.00000000E+00  0.00000000E+00  0.00000000E+00
  0.00000000E+00  0.00000000E+00  0.00000000E+00
  0.00000000E+00  0.00000000E+00  0.00000000E+00
  0.00000000E+00  0.00000000E+00  0.00000000E+00
  0.00000000E+00  0.00000000E+00  0.00000000E+00
  0.00000000E+00  0.00000000E+00  0.00000000E+00
  0.00000000E+00  0.00000000E+00  0.00000000E+00
  0.00000000E+00  0.00000000E+00  0.00000000E+00
  0.00000000E+00  0.00000000E+00  0.00000000E+00
  0.00000000E+00  0.00000000E+00  0.00000000E+00
  0.00000000E+00  0.00000000E+00  0.00000000E+00
  0.00000000E+00  0.00000000E+00  0.00000000E+00
  0.00000000E+00  0.00000000E+00  0.00000000E+00
  0.00000000E+00  0.00000000E+00  0.00000000E+00
  0.00000000E+00  0.00000000E+00  0.00000000E+00
  0.00000000E+00  0.00000000E+00  0.00000000E+00
  0.00000000E+00  0.00000000E+00  0.00000000E+00
  0.00000000E+00  0.00000000E+00  0.00000000E+00
  0.00000000E+00  0.00000000E+00  0.00000000E+00
  0.00000000E+00  0.00000000E+00  0.00000000E+00
  0.00000000E+00  0.00000000E+00  0.00000000E+00
  0.00000000E+00  0.00000000E+00  0.00000000E+00
  0.00000000E+00  0.00000000E+00  0.00000000E+00
  0.00000000E+00  0.00000000E+00  0.00000000E+00
  0.00000000E+00  0.00000000E+00  0.00000000E+00
  0.00000000E+00  0.00000000E+00  0.00000000E+00
  0.00000000E+00  0.00000000E+00  0.00000000E+00
  0.00000000E+00  0.00000000E+00  0.00000000E+00
  0.00000000E+00  0.00000000E+00  0.00000000E+00
  0.00000000E+00  0.00000000E+00  0.00000000E+00
  0.00000000E+00  0.00000000E+00  0.00000000E+00
  0.00000000E+00  0.00000000E+00  0.00000000E+00
  0.00000000E+00  0.00000000E+00  0.00000000E+00
  0.00000000E+00  0.00000000E+00  0.00000000E+00
  0.00000000E+00  0.00000000E+00  0.00000000E+00
  0.00000000E+00  0.00000000E+00  0.00000000E+00
  0.00000000E+00  0.00000000E+00  0.00000000E+00
  0.00000000E+00  0.00000000E+00  0.00000000E+00
  0.00000000E+00  0.00000000E+00  0.00000000E+00
  0.00000000E+00  0.00000000E+00  0.00000000E+00
  0.00000000E+00  0.00000000E+00  0.00000000E+00
  0.00000000E+00  0.00000000E+00  0.00000000E+00
  0.00000000E+00  0.00000000E+00  0.00000000E+00
  0.00000000E+00  0.00000000E+00  0.00000000E+00
  0.00000000E+00  0.00000000E+00  0.00000000E+00
  0.00000000E+00  0.00000000E+00  0.00000000E+00
  0.00000000E+00  0.00000000E+00  0.00000000E+00
  0.00000000E+00  0.00000000E+00  0.00000000E+00
  0.00000000E+00  0.00000000E+00  0.00000000E+00
  0.00000000E+00  0.00000000E+00  0.00000000E+00
  0.00000000E+00  0.00000000E+00  0.00000000E+00
  0.00000000E+00  0.00000000E+00  0.00000000E+00
  0.00000000E+00  0.00000000E+00  0.00000000E+00
  0.00000000E+00  0.00000000E+00  0.00000000E+00
  0.00000000E+00  0.00000000E+00  0.00000000E+00
  0.00000000E+00  0.00000000E+00  0.00000000E+00
  0.00000000E+00  0.00000000E+00  0.00000000E+00
  0.00000000E+00  0.00000000E+00  0.00000000E+00
  0.00000000E+00  0.00000000E+00  0.00000000E+00
  0.00000000E+00  0.00000000E+00  0.00000000E+00
  0.00000000E+00  0.00000000E+00  0.00000000E+00
  0.00000000E+00  0.00000000E+00  0.00000000E+00
  0.00000000E+00  0.00000000E+00  0.00000000E+00
  0.00000000E+00  0.00000000E+00  0.00000000E+00
  0.00000000E+00  0.00000000E+00  0.00000000E+00
  0.00000000E+00  0.00000000E+00  0.00000000E+00
  0.00000000E+00  0.00000000E+00  0.00000000E+00
  0.00000000E+00  0.00000000E+00  0.00000000E+00
  0.00000000E+00  0.00000000E+00  0.00000000E+00
  0.00000000E+00  0.00000000E+00  0.00000000E+00
  0.00000000E+00  0.00000000E+00  0.00000000E+00
  0.00000000E+00  0.00000000E+00  0.00000000E+00
  0.00000000E+00  0.00000000E+00  0.00000000E+00
  0.00000000E+00  0.00000000E+00  0.00000000E+00
  0.00000000E+00  0.00000000E+00  0.00000000E+00
  0.00000000E+00  0.00000000E+00  0.00000000E+00
  0.00000000E+00  0.00000000E+00  0.00000000E+00
  0.00000000E+00  0.00000000E+00  0.00000000E+00
  0.00000000E+00  0.00000000E+00  0.00000000E+00
  0.00000000E+00  0.00000000E+00  0.00000000E+00
  0.00000000E+00  0.00000000E+00  0.00000000E+00
  0.00000000E+00  0.00000000E+00  0.00000000E+00
  0.00000000E+00  0.00000000E+00  0.00000000E+00
  0.00000000E+00  0.00000000E+00  0.00000000E+00
  0.00000000E+00  0.00000000E+00  0.00000000E+00
  0.00000000E+00  0.00000000E+00  0.00000000E+00
  0.00000000E+00  0.00000000E+00  0.00000000E+00
  0.00000000E+00  0.00000000E+00  0.00000000E+00
  0.00000000E+00  0.00000000E+00  0.00000000E+00
  0.00000000E+00  0.00000000E+00  0.00000000E+00
  0.00000000E+00  0.00000000E+00  0.00000000E+00
  0.00000000E+00  0.00000000E+00  0.00000000E+00
  0.00000000E+00  0.00000000E+00  0.00000000E+00
  0.00000000E+00  0.00000000E+00  0.00000000E+00
  0.00000000E+00  0.00000000E+00  0.00000000E+00
