Li63 Ta65 O192                          
   1.00000000000000     
    15.0337320000000005   -0.0060940000000000   -0.0057460000000000
     0.9606630000000000   15.0030490000000007   -0.0057500000000000
     0.9606080000000000    0.9007180000000000   14.9759290000000007
   Li   Ta   O 
    63    65   192
Direct
  0.3897910000000024  0.3897910000000024  0.8897919999999999
  0.3897910000000024  0.8897910000000024  0.3897919999999999
  0.3897910000000024  0.8897910000000024  0.8897919999999999
  0.8897910000000024  0.3897910000000024  0.3897919999999999
  0.8897910000000024  0.3897910000000024  0.8897919999999999
  0.8897910000000024  0.8897910000000024  0.3897919999999999
  0.8897910000000024  0.8897910000000024  0.8897919999999999
  0.1397910000000024  0.3897910000000024  0.1397919999999999
  0.1397910000000024  0.3897910000000024  0.6397919999999999
  0.1397910000000024  0.8897910000000024  0.1397919999999999
  0.1397910000000024  0.8897910000000024  0.6397919999999999
  0.6397910000000024  0.3897910000000024  0.1397919999999999
  0.6397910000000024  0.3897910000000024  0.6397919999999999
  0.6397910000000024  0.8897910000000024  0.1397919999999999
  0.6397910000000024  0.8897910000000024  0.6397919999999999
  0.3897910000000024  0.1397910000000024  0.1397919999999999
  0.3897910000000024  0.1397910000000024  0.6397919999999999
  0.3897910000000024  0.6397910000000024  0.1397919999999999
  0.3897910000000024  0.6397910000000024  0.6397919999999999
  0.8897910000000024  0.1397910000000024  0.1397919999999999
  0.8897910000000024  0.1397910000000024  0.6397919999999999
  0.8897910000000024  0.6397910000000024  0.1397919999999999
  0.8897910000000024  0.6397910000000024  0.6397919999999999
  0.1397910000000024  0.1397910000000024  0.3897919999999999
  0.1397910000000024  0.1397910000000024  0.8897919999999999
  0.1397910000000024  0.6397910000000024  0.3897919999999999
  0.1397910000000024  0.6397910000000024  0.8897919999999999
  0.6397910000000024  0.1397910000000024  0.3897919999999999
  0.6397910000000024  0.1397910000000024  0.8897919999999999
  0.6397910000000024  0.6397910000000024  0.3897919999999999
  0.6397910000000024  0.6397910000000024  0.8897919999999999
  0.1397919999999999  0.1397919999999999  0.1397919999999999
  0.1397919999999999  0.1397919999999999  0.6397919999999999
  0.1397919999999999  0.6397910000000024  0.1397919999999999
  0.1397919999999999  0.6397910000000024  0.6397919999999999
  0.6397919999999999  0.1397919999999999  0.1397919999999999
  0.6397919999999999  0.1397919999999999  0.6397919999999999
  0.6397919999999999  0.6397919999999999  0.1397919999999999
  0.6397919999999999  0.6397910000000024  0.6397919999999999
  0.3897919999999999  0.1397919999999999  0.3897919999999999
  0.3897919999999999  0.1397919999999999  0.8897919999999999
  0.3897919999999999  0.6397919999999999  0.3897919999999999
  0.3897919999999999  0.6397919999999999  0.8897919999999999
  0.8897919999999999  0.1397919999999999  0.3897919999999999
  0.8897919999999999  0.1397919999999999  0.8897919999999999
  0.8897919999999999  0.6397919999999999  0.3897919999999999
  0.8897919999999999  0.6397919999999999  0.8897919999999999
  0.1397919999999999  0.3897919999999999  0.3897919999999999
  0.1397919999999999  0.3897919999999999  0.8897919999999999
  0.1397919999999999  0.8897919999999999  0.3897919999999999
  0.1397919999999999  0.8897919999999999  0.8897919999999999
  0.6397919999999999  0.3897919999999999  0.3897919999999999
  0.6397919999999999  0.3897919999999999  0.8897919999999999
  0.6397919999999999  0.8897910000000024  0.3897919999999999
  0.6397919999999999  0.8897919999999999  0.8897919999999999
  0.3897919999999999  0.3897910000000024  0.1397919999999999
  0.3897919999999999  0.3897919999999999  0.6397919999999999
  0.3897919999999999  0.8897919999999999  0.1397919999999999
  0.3897919999999999  0.8897919999999999  0.6397919999999999
  0.8897919999999999  0.3897919999999999  0.1397919999999999
  0.8897919999999999  0.3897919999999999  0.6397919999999999
  0.8897919999999999  0.8897910000000024  0.1397919999999999
  0.8897919999999999  0.8897910000000024  0.6397919999999999
  0.3897910000000024  0.3897910000000024  0.3897919999999999  
  0.2480819999999966  0.2480819999999966  0.2480830000000012
  0.2480819999999966  0.2480819999999966  0.7480830000000012
  0.2480819999999966  0.7480819999999966  0.2480830000000012
  0.2480819999999966  0.7480819999999966  0.7480830000000012
  0.7480819999999966  0.2480819999999966  0.2480830000000012
  0.7480819999999966  0.2480819999999966  0.7480830000000012
  0.7480819999999966  0.7480819999999966  0.2480830000000012
  0.7480819999999966  0.7480819999999966  0.7480830000000012
  0.4980819999999966  0.2480819999999966  0.4980830000000012
  0.4980819999999966  0.2480819999999966  0.9980830000000012
  0.4980819999999966  0.7480819999999966  0.4980830000000012
  0.4980819999999966  0.7480819999999966  0.9980830000000012
  0.9980819999999966  0.2480819999999966  0.4980830000000012
  0.9980819999999966  0.2480819999999966  0.9980830000000012
  0.9980819999999966  0.7480819999999966  0.4980830000000012
  0.9980819999999966  0.7480819999999966  0.9980830000000012
  0.2480819999999966  0.4980819999999966  0.4980830000000012
  0.2480819999999966  0.4980819999999966  0.9980830000000012
  0.2480819999999966  0.9980819999999966  0.4980830000000012
  0.2480819999999966  0.9980819999999966  0.9980830000000012
  0.7480819999999966  0.4980819999999966  0.4980830000000012
  0.7480819999999966  0.4980819999999966  0.9980830000000012
  0.7480819999999966  0.9980819999999966  0.4980830000000012
  0.7480819999999966  0.9980819999999966  0.9980830000000012
  0.4980819999999966  0.4980819999999966  0.2480830000000012
  0.4980819999999966  0.4980819999999966  0.7480830000000012
  0.4980819999999966  0.9980819999999966  0.2480830000000012
  0.4980819999999966  0.9980819999999966  0.7480830000000012
  0.9980819999999966  0.4980819999999966  0.2480830000000012
  0.9980819999999966  0.4980819999999966  0.7480830000000012
  0.9980819999999966  0.9980819999999966  0.2480830000000012
  0.9980819999999966  0.9980819999999966  0.7480830000000012
  0.4980830000000012  0.4980819999999966  0.4980839999999986
  0.4980830000000012  0.4980819999999966  0.9980839999999986
  0.4980830000000012  0.9980819999999966  0.4980839999999986
  0.4980830000000012  0.9980819999999966  0.9980839999999986
  0.9980830000000012  0.4980819999999966  0.4980839999999986
  0.9980830000000012  0.4980819999999966  0.9980839999999986
  0.9980830000000012  0.9980819999999966  0.4980839999999986
  0.9980830000000012  0.9980819999999966  0.9980839999999986
  0.2480830000000012  0.4980819999999966  0.2480839999999986
  0.2480830000000012  0.4980819999999966  0.7480839999999986
  0.2480830000000012  0.9980819999999966  0.2480839999999986
  0.2480830000000012  0.9980819999999966  0.7480839999999986
  0.7480830000000012  0.4980819999999966  0.2480839999999986
  0.7480830000000012  0.4980819999999966  0.7480839999999986
  0.7480830000000012  0.9980819999999966  0.2480839999999986
  0.7480830000000012  0.9980819999999966  0.7480839999999986
  0.4980830000000012  0.2480819999999966  0.2480839999999986
  0.4980830000000012  0.2480819999999966  0.7480839999999986
  0.4980830000000012  0.7480819999999966  0.2480839999999986
  0.4980830000000012  0.7480819999999966  0.7480839999999986
  0.9980830000000012  0.2480819999999966  0.2480839999999986
  0.9980830000000012  0.2480819999999966  0.7480839999999986
  0.9980830000000012  0.7480819999999966  0.2480839999999986
  0.9980830000000012  0.7480819999999966  0.7480839999999986
  0.2480830000000012  0.2480819999999966  0.4980839999999986
  0.2480830000000012  0.2480819999999966  0.9980839999999986
  0.2480830000000012  0.7480819999999966  0.4980839999999986
  0.2480830000000012  0.7480819999999966  0.9980839999999986
  0.7480830000000012  0.2480819999999966  0.4980839999999986
  0.7480830000000012  0.2480819999999966  0.9980839999999986
  0.7480830000000012  0.7480819999999966  0.4980839999999986
  0.7480830000000012  0.7480819999999966  0.9980839999999986
  0.2081200000000010  0.3684399999999997  0.2706659999999985
  0.2081209999999984  0.3684399999999997  0.7706659999999985
  0.2081209999999984  0.8684399999999997  0.2706659999999985
  0.2081200000000010  0.8684399999999997  0.7706659999999985
  0.7081200000000010  0.3684399999999997  0.2706659999999985
  0.7081200000000010  0.3684399999999997  0.7706659999999985
  0.7081200000000010  0.8684399999999997  0.2706659999999985
  0.7081200000000010  0.8684399999999997  0.7706659999999985
  0.4581200000000010  0.3684399999999997  0.0206659999999985
  0.4581200000000010  0.3684399999999997  0.5206659999999985
  0.4581200000000010  0.8684399999999997  0.0206659999999985
  0.4581200000000010  0.8684399999999997  0.5206659999999985
  0.9581200000000010  0.3684399999999997  0.0206659999999985
  0.9581209999999984  0.3684399999999997  0.5206659999999985
  0.9581209999999984  0.8684399999999997  0.0206659999999985
  0.9581200000000010  0.8684399999999997  0.5206659999999985
  0.2081200000000010  0.1184399999999997  0.0206659999999985
  0.2081200000000010  0.1184399999999997  0.5206659999999985
  0.2081200000000010  0.6184399999999997  0.0206659999999985
  0.2081200000000010  0.6184399999999997  0.5206659999999985
  0.7081200000000010  0.1184399999999997  0.0206659999999985
  0.7081209999999984  0.1184399999999997  0.5206659999999985
  0.7081209999999984  0.6184399999999997  0.0206659999999985
  0.7081209999999984  0.6184399999999997  0.5206659999999985
  0.4581200000000010  0.1184399999999997  0.2706659999999985
  0.4581200000000010  0.1184399999999997  0.7706659999999985
  0.4581200000000010  0.6184399999999997  0.2706659999999985
  0.4581200000000010  0.6184399999999997  0.7706659999999985
  0.9581200000000010  0.1184399999999997  0.2706659999999985
  0.9581200000000010  0.1184399999999997  0.7706659999999985
  0.9581209999999984  0.6184399999999997  0.2706659999999985
  0.9581209999999984  0.6184399999999997  0.7706659999999985
  0.2706670000000031  0.2081209999999984  0.3684390000000022
  0.2706670000000031  0.2081209999999984  0.8684390000000022
  0.2706670000000031  0.7081209999999984  0.3684390000000022
  0.2706670000000031  0.7081209999999984  0.8684390000000022
  0.7706670000000031  0.2081209999999984  0.3684390000000022
  0.7706670000000031  0.2081200000000010  0.8684390000000022
  0.7706670000000031  0.7081209999999984  0.3684390000000022
  0.7706670000000031  0.7081209999999984  0.8684390000000022
  0.0206670000000031  0.2081200000000010  0.1184390000000022
  0.0206670000000031  0.2081209999999984  0.6184390000000022
  0.0206670000000031  0.7081200000000010  0.1184390000000022
  0.0206670000000031  0.7081200000000010  0.6184390000000022
  0.5206670000000031  0.2081200000000010  0.1184390000000022
  0.5206670000000031  0.2081209999999984  0.6184390000000022
  0.5206670000000031  0.7081209999999984  0.1184390000000022
  0.5206670000000031  0.7081209999999984  0.6184390000000022
  0.2706670000000031  0.4581209999999984  0.1184390000000022
  0.2706670000000031  0.4581209999999984  0.6184390000000022
  0.2706670000000031  0.9581209999999984  0.1184390000000022
  0.2706670000000031  0.9581209999999984  0.6184390000000022
  0.7706670000000031  0.4581209999999984  0.1184390000000022
  0.7706670000000031  0.4581209999999984  0.6184390000000022
  0.7706670000000031  0.9581209999999984  0.1184390000000022
  0.7706670000000031  0.9581209999999984  0.6184390000000022
  0.0206670000000031  0.4581209999999984  0.3684390000000022
  0.0206670000000031  0.4581209999999984  0.8684390000000022
  0.0206670000000031  0.9581209999999984  0.3684390000000022
  0.0206670000000031  0.9581209999999984  0.8684390000000022
  0.5206670000000031  0.4581209999999984  0.3684390000000022
  0.5206670000000031  0.4581209999999984  0.8684390000000022
  0.5206670000000031  0.9581209999999984  0.3684390000000022
  0.5206670000000031  0.9581209999999984  0.8684390000000022
  0.3684399999999997  0.2706659999999985  0.2081190000000035
  0.3684399999999997  0.2706659999999985  0.7081190000000035
  0.3684399999999997  0.7706659999999985  0.2081190000000035
  0.3684399999999997  0.7706659999999985  0.7081190000000035
  0.8684399999999997  0.2706659999999985  0.2081190000000035
  0.8684399999999997  0.2706659999999985  0.7081190000000035
  0.8684399999999997  0.7706659999999985  0.2081190000000035
  0.8684399999999997  0.7706659999999985  0.7081190000000035
  0.1184399999999997  0.2706659999999985  0.4581190000000035
  0.1184399999999997  0.2706659999999985  0.9581190000000035
  0.1184399999999997  0.7706659999999985  0.4581190000000035
  0.1184399999999997  0.7706659999999985  0.9581190000000035
  0.6184399999999997  0.2706659999999985  0.4581190000000035
  0.6184399999999997  0.2706659999999985  0.9581190000000035
  0.6184399999999997  0.7706659999999985  0.4581190000000035
  0.6184399999999997  0.7706659999999985  0.9581190000000035
  0.3684399999999997  0.0206659999999985  0.4581190000000035
  0.3684399999999997  0.0206659999999985  0.9581190000000035
  0.3684399999999997  0.5206659999999985  0.4581190000000035
  0.3684399999999997  0.5206659999999985  0.9581190000000035
  0.8684399999999997  0.0206659999999985  0.4581190000000035
  0.8684399999999997  0.0206659999999985  0.9581190000000035
  0.8684399999999997  0.5206659999999985  0.4581190000000035
  0.8684399999999997  0.5206659999999985  0.9581190000000035
  0.1184399999999997  0.0206659999999985  0.2081190000000035
  0.1184399999999997  0.0206659999999985  0.7081190000000035
  0.1184399999999997  0.5206659999999985  0.2081190000000035
  0.1184399999999997  0.5206659999999985  0.7081190000000035
  0.6184399999999997  0.0206659999999985  0.2081190000000035
  0.6184399999999997  0.0206659999999985  0.7081190000000035
  0.6184399999999997  0.5206659999999985  0.2081190000000035
  0.6184399999999997  0.5206659999999985  0.7081190000000035
  0.2081190000000035  0.2706659999999985  0.1184390000000022
  0.2081190000000035  0.2706659999999985  0.6184390000000022
  0.2081190000000035  0.7706659999999985  0.1184390000000022
  0.2081190000000035  0.7706659999999985  0.6184390000000022
  0.7081190000000035  0.2706659999999985  0.1184390000000022
  0.7081190000000035  0.2706659999999985  0.6184390000000022
  0.7081190000000035  0.7706659999999985  0.1184390000000022
  0.7081190000000035  0.7706659999999985  0.6184390000000022
  0.4581190000000035  0.2706659999999985  0.3684390000000022
  0.4581190000000035  0.2706659999999985  0.8684390000000022
  0.4581190000000035  0.7706659999999985  0.3684390000000022
  0.4581190000000035  0.7706659999999985  0.8684390000000022
  0.9581190000000035  0.2706659999999985  0.3684390000000022
  0.9581190000000035  0.2706659999999985  0.8684390000000022
  0.9581190000000035  0.7706659999999985  0.3684390000000022
  0.9581190000000035  0.7706659999999985  0.8684390000000022
  0.2081190000000035  0.0206659999999985  0.3684390000000022
  0.2081190000000035  0.0206659999999985  0.8684390000000022
  0.2081190000000035  0.5206659999999985  0.3684390000000022
  0.2081190000000035  0.5206659999999985  0.8684390000000022
  0.7081190000000035  0.0206659999999985  0.3684390000000022
  0.7081190000000035  0.0206659999999985  0.8684390000000022
  0.7081190000000035  0.5206659999999985  0.3684390000000022
  0.7081190000000035  0.5206659999999985  0.8684390000000022
  0.4581190000000035  0.0206659999999985  0.1184390000000022
  0.4581190000000035  0.0206659999999985  0.6184390000000022
  0.4581190000000035  0.5206659999999985  0.1184390000000022
  0.4581190000000035  0.5206659999999985  0.6184390000000022
  0.9581190000000035  0.0206659999999985  0.1184390000000022
  0.9581190000000035  0.0206659999999985  0.6184390000000022
  0.9581190000000035  0.5206659999999985  0.1184390000000022
  0.9581190000000035  0.5206659999999985  0.6184390000000022
  0.1184390000000022  0.2081209999999984  0.2706659999999985
  0.1184390000000022  0.2081209999999984  0.7706670000000031
  0.1184390000000022  0.7081209999999984  0.2706659999999985
  0.1184390000000022  0.7081209999999984  0.7706670000000031
  0.6184390000000022  0.2081209999999984  0.2706670000000031
  0.6184390000000022  0.2081209999999984  0.7706659999999985
  0.6184390000000022  0.7081209999999984  0.2706670000000031
  0.6184390000000022  0.7081209999999984  0.7706659999999985
  0.3684390000000022  0.2081209999999984  0.0206659999999985
  0.3684390000000022  0.2081209999999984  0.5206670000000031
  0.3684390000000022  0.7081209999999984  0.0206670000000031
  0.3684390000000022  0.7081209999999984  0.5206670000000031
  0.8684390000000022  0.2081209999999984  0.0206659999999985
  0.8684390000000022  0.2081209999999984  0.5206659999999985
  0.8684390000000022  0.7081209999999984  0.0206670000000031
  0.8684390000000022  0.7081209999999984  0.5206670000000031
  0.1184390000000022  0.4581209999999984  0.0206670000000031
  0.1184390000000022  0.4581209999999984  0.5206670000000031
  0.1184390000000022  0.9581209999999984  0.0206670000000031
  0.1184390000000022  0.9581209999999984  0.5206659999999985
  0.6184390000000022  0.4581209999999984  0.0206659999999985
  0.6184390000000022  0.4581209999999984  0.5206670000000031
  0.6184390000000022  0.9581209999999984  0.0206659999999985
  0.6184390000000022  0.9581209999999984  0.5206659999999985
  0.3684390000000022  0.4581209999999984  0.2706670000000031
  0.3684390000000022  0.4581209999999984  0.7706670000000031
  0.3684390000000022  0.9581209999999984  0.2706670000000031
  0.3684390000000022  0.9581209999999984  0.7706670000000031
  0.8684390000000022  0.4581209999999984  0.2706670000000031
  0.8684390000000022  0.4581209999999984  0.7706670000000031
  0.8684390000000022  0.9581209999999984  0.2706659999999985
  0.8684390000000022  0.9581209999999984  0.7706670000000031
  0.2706659999999985  0.1184399999999997  0.2081190000000035
  0.2706659999999985  0.1184399999999997  0.7081190000000035
  0.2706659999999985  0.6184399999999997  0.2081190000000035
  0.2706659999999985  0.6184399999999997  0.7081200000000010
  0.7706659999999985  0.1184399999999997  0.2081190000000035
  0.7706659999999985  0.1184399999999997  0.7081190000000035
  0.7706659999999985  0.6184399999999997  0.2081190000000035
  0.7706659999999985  0.6184399999999997  0.7081190000000035
  0.0206659999999985  0.1184399999999997  0.4581190000000035
  0.0206659999999985  0.1184399999999997  0.9581190000000035
  0.0206650000000010  0.6184399999999997  0.4581190000000035
  0.0206659999999985  0.6184399999999997  0.9581190000000035
  0.5206650000000010  0.1184399999999997  0.4581190000000035
  0.5206650000000010  0.1184399999999997  0.9581190000000035
  0.5206650000000010  0.6184399999999997  0.4581190000000035
  0.5206659999999985  0.6184399999999997  0.9581190000000035
  0.2706659999999985  0.3684399999999997  0.4581190000000035
  0.2706659999999985  0.3684399999999997  0.9581200000000010
  0.2706659999999985  0.8684399999999997  0.4581190000000035
  0.2706659999999985  0.8684399999999997  0.9581190000000035
  0.7706659999999985  0.3684399999999997  0.4581200000000010
  0.7706659999999985  0.3684399999999997  0.9581190000000035
  0.7706659999999985  0.8684399999999997  0.4581190000000035
  0.7706659999999985  0.8684399999999997  0.9581200000000010
  0.0206659999999985  0.3684399999999997  0.2081200000000010
  0.0206659999999985  0.3684399999999997  0.7081190000000035
  0.0206659999999985  0.8684399999999997  0.2081190000000035
  0.0206659999999985  0.8684399999999997  0.7081190000000035
  0.5206659999999985  0.3684399999999997  0.2081200000000010
  0.5206659999999985  0.3684399999999997  0.7081190000000035
  0.5206659999999985  0.8684399999999997  0.2081190000000035
  0.5206659999999985  0.8684399999999997  0.7081190000000035
 
  0.00000000E+00  0.00000000E+00  0.00000000E+00
  0.00000000E+00  0.00000000E+00  0.00000000E+00
  0.00000000E+00  0.00000000E+00  0.00000000E+00
  0.00000000E+00  0.00000000E+00  0.00000000E+00
  0.00000000E+00  0.00000000E+00  0.00000000E+00
  0.00000000E+00  0.00000000E+00  0.00000000E+00
  0.00000000E+00  0.00000000E+00  0.00000000E+00
  0.00000000E+00  0.00000000E+00  0.00000000E+00
  0.00000000E+00  0.00000000E+00  0.00000000E+00
  0.00000000E+00  0.00000000E+00  0.00000000E+00
  0.00000000E+00  0.00000000E+00  0.00000000E+00
  0.00000000E+00  0.00000000E+00  0.00000000E+00
  0.00000000E+00  0.00000000E+00  0.00000000E+00
  0.00000000E+00  0.00000000E+00  0.00000000E+00
  0.00000000E+00  0.00000000E+00  0.00000000E+00
  0.00000000E+00  0.00000000E+00  0.00000000E+00
  0.00000000E+00  0.00000000E+00  0.00000000E+00
  0.00000000E+00  0.00000000E+00  0.00000000E+00
  0.00000000E+00  0.00000000E+00  0.00000000E+00
  0.00000000E+00  0.00000000E+00  0.00000000E+00
  0.00000000E+00  0.00000000E+00  0.00000000E+00
  0.00000000E+00  0.00000000E+00  0.00000000E+00
  0.00000000E+00  0.00000000E+00  0.00000000E+00
  0.00000000E+00  0.00000000E+00  0.00000000E+00
  0.00000000E+00  0.00000000E+00  0.00000000E+00
  0.00000000E+00  0.00000000E+00  0.00000000E+00
  0.00000000E+00  0.00000000E+00  0.00000000E+00
  0.00000000E+00  0.00000000E+00  0.00000000E+00
  0.00000000E+00  0.00000000E+00  0.00000000E+00
  0.00000000E+00  0.00000000E+00  0.00000000E+00
  0.00000000E+00  0.00000000E+00  0.00000000E+00
  0.00000000E+00  0.00000000E+00  0.00000000E+00
  0.00000000E+00  0.00000000E+00  0.00000000E+00
  0.00000000E+00  0.00000000E+00  0.00000000E+00
  0.00000000E+00  0.00000000E+00  0.00000000E+00
  0.00000000E+00  0.00000000E+00  0.00000000E+00
  0.00000000E+00  0.00000000E+00  0.00000000E+00
  0.00000000E+00  0.00000000E+00  0.00000000E+00
  0.00000000E+00  0.00000000E+00  0.00000000E+00
  0.00000000E+00  0.00000000E+00  0.00000000E+00
  0.00000000E+00  0.00000000E+00  0.00000000E+00
  0.00000000E+00  0.00000000E+00  0.00000000E+00
  0.00000000E+00  0.00000000E+00  0.00000000E+00
  0.00000000E+00  0.00000000E+00  0.00000000E+00
  0.00000000E+00  0.00000000E+00  0.00000000E+00
  0.00000000E+00  0.00000000E+00  0.00000000E+00
  0.00000000E+00  0.00000000E+00  0.00000000E+00
  0.00000000E+00  0.00000000E+00  0.00000000E+00
  0.00000000E+00  0.00000000E+00  0.00000000E+00
  0.00000000E+00  0.00000000E+00  0.00000000E+00
  0.00000000E+00  0.00000000E+00  0.00000000E+00
  0.00000000E+00  0.00000000E+00  0.00000000E+00
  0.00000000E+00  0.00000000E+00  0.00000000E+00
  0.00000000E+00  0.00000000E+00  0.00000000E+00
  0.00000000E+00  0.00000000E+00  0.00000000E+00
  0.00000000E+00  0.00000000E+00  0.00000000E+00
  0.00000000E+00  0.00000000E+00  0.00000000E+00
  0.00000000E+00  0.00000000E+00  0.00000000E+00
  0.00000000E+00  0.00000000E+00  0.00000000E+00
  0.00000000E+00  0.00000000E+00  0.00000000E+00
  0.00000000E+00  0.00000000E+00  0.00000000E+00
  0.00000000E+00  0.00000000E+00  0.00000000E+00
  0.00000000E+00  0.00000000E+00  0.00000000E+00
  0.00000000E+00  0.00000000E+00  0.00000000E+00
  0.00000000E+00  0.00000000E+00  0.00000000E+00
  0.00000000E+00  0.00000000E+00  0.00000000E+00
  0.00000000E+00  0.00000000E+00  0.00000000E+00
  0.00000000E+00  0.00000000E+00  0.00000000E+00
  0.00000000E+00  0.00000000E+00  0.00000000E+00
  0.00000000E+00  0.00000000E+00  0.00000000E+00
  0.00000000E+00  0.00000000E+00  0.00000000E+00
  0.00000000E+00  0.00000000E+00  0.00000000E+00
  0.00000000E+00  0.00000000E+00  0.00000000E+00
  0.00000000E+00  0.00000000E+00  0.00000000E+00
  0.00000000E+00  0.00000000E+00  0.00000000E+00
  0.00000000E+00  0.00000000E+00  0.00000000E+00
  0.00000000E+00  0.00000000E+00  0.00000000E+00
  0.00000000E+00  0.00000000E+00  0.00000000E+00
  0.00000000E+00  0.00000000E+00  0.00000000E+00
  0.00000000E+00  0.00000000E+00  0.00000000E+00
  0.00000000E+00  0.00000000E+00  0.00000000E+00
  0.00000000E+00  0.00000000E+00  0.00000000E+00
  0.00000000E+00  0.00000000E+00  0.00000000E+00
  0.00000000E+00  0.00000000E+00  0.00000000E+00
  0.00000000E+00  0.00000000E+00  0.00000000E+00
  0.00000000E+00  0.00000000E+00  0.00000000E+00
  0.00000000E+00  0.00000000E+00  0.00000000E+00
  0.00000000E+00  0.00000000E+00  0.00000000E+00
  0.00000000E+00  0.00000000E+00  0.00000000E+00
  0.00000000E+00  0.00000000E+00  0.00000000E+00
  0.00000000E+00  0.00000000E+00  0.00000000E+00
  0.00000000E+00  0.00000000E+00  0.00000000E+00
  0.00000000E+00  0.00000000E+00  0.00000000E+00
  0.00000000E+00  0.00000000E+00  0.00000000E+00
  0.00000000E+00  0.00000000E+00  0.00000000E+00
  0.00000000E+00  0.00000000E+00  0.00000000E+00
  0.00000000E+00  0.00000000E+00  0.00000000E+00
  0.00000000E+00  0.00000000E+00  0.00000000E+00
  0.00000000E+00  0.00000000E+00  0.00000000E+00
  0.00000000E+00  0.00000000E+00  0.00000000E+00
  0.00000000E+00  0.00000000E+00  0.00000000E+00
  0.00000000E+00  0.00000000E+00  0.00000000E+00
  0.00000000E+00  0.00000000E+00  0.00000000E+00
  0.00000000E+00  0.00000000E+00  0.00000000E+00
  0.00000000E+00  0.00000000E+00  0.00000000E+00
  0.00000000E+00  0.00000000E+00  0.00000000E+00
  0.00000000E+00  0.00000000E+00  0.00000000E+00
  0.00000000E+00  0.00000000E+00  0.00000000E+00
  0.00000000E+00  0.00000000E+00  0.00000000E+00
  0.00000000E+00  0.00000000E+00  0.00000000E+00
  0.00000000E+00  0.00000000E+00  0.00000000E+00
  0.00000000E+00  0.00000000E+00  0.00000000E+00
  0.00000000E+00  0.00000000E+00  0.00000000E+00
  0.00000000E+00  0.00000000E+00  0.00000000E+00
  0.00000000E+00  0.00000000E+00  0.00000000E+00
  0.00000000E+00  0.00000000E+00  0.00000000E+00
  0.00000000E+00  0.00000000E+00  0.00000000E+00
  0.00000000E+00  0.00000000E+00  0.00000000E+00
  0.00000000E+00  0.00000000E+00  0.00000000E+00
  0.00000000E+00  0.00000000E+00  0.00000000E+00
  0.00000000E+00  0.00000000E+00  0.00000000E+00
  0.00000000E+00  0.00000000E+00  0.00000000E+00
  0.00000000E+00  0.00000000E+00  0.00000000E+00
  0.00000000E+00  0.00000000E+00  0.00000000E+00
  0.00000000E+00  0.00000000E+00  0.00000000E+00
  0.00000000E+00  0.00000000E+00  0.00000000E+00
  0.00000000E+00  0.00000000E+00  0.00000000E+00
  0.00000000E+00  0.00000000E+00  0.00000000E+00
  0.00000000E+00  0.00000000E+00  0.00000000E+00
  0.00000000E+00  0.00000000E+00  0.00000000E+00
  0.00000000E+00  0.00000000E+00  0.00000000E+00
  0.00000000E+00  0.00000000E+00  0.00000000E+00
  0.00000000E+00  0.00000000E+00  0.00000000E+00
  0.00000000E+00  0.00000000E+00  0.00000000E+00
  0.00000000E+00  0.00000000E+00  0.00000000E+00
  0.00000000E+00  0.00000000E+00  0.00000000E+00
  0.00000000E+00  0.00000000E+00  0.00000000E+00
  0.00000000E+00  0.00000000E+00  0.00000000E+00
  0.00000000E+00  0.00000000E+00  0.00000000E+00
  0.00000000E+00  0.00000000E+00  0.00000000E+00
  0.00000000E+00  0.00000000E+00  0.00000000E+00
  0.00000000E+00  0.00000000E+00  0.00000000E+00
  0.00000000E+00  0.00000000E+00  0.00000000E+00
  0.00000000E+00  0.00000000E+00  0.00000000E+00
  0.00000000E+00  0.00000000E+00  0.00000000E+00
  0.00000000E+00  0.00000000E+00  0.00000000E+00
  0.00000000E+00  0.00000000E+00  0.00000000E+00
  0.00000000E+00  0.00000000E+00  0.00000000E+00
  0.00000000E+00  0.00000000E+00  0.00000000E+00
  0.00000000E+00  0.00000000E+00  0.00000000E+00
  0.00000000E+00  0.00000000E+00  0.00000000E+00
  0.00000000E+00  0.00000000E+00  0.00000000E+00
  0.00000000E+00  0.00000000E+00  0.00000000E+00
  0.00000000E+00  0.00000000E+00  0.00000000E+00
  0.00000000E+00  0.00000000E+00  0.00000000E+00
  0.00000000E+00  0.00000000E+00  0.00000000E+00
  0.00000000E+00  0.00000000E+00  0.00000000E+00
  0.00000000E+00  0.00000000E+00  0.00000000E+00
  0.00000000E+00  0.00000000E+00  0.00000000E+00
  0.00000000E+00  0.00000000E+00  0.00000000E+00
  0.00000000E+00  0.00000000E+00  0.00000000E+00
  0.00000000E+00  0.00000000E+00  0.00000000E+00
  0.00000000E+00  0.00000000E+00  0.00000000E+00
  0.00000000E+00  0.00000000E+00  0.00000000E+00
  0.00000000E+00  0.00000000E+00  0.00000000E+00
  0.00000000E+00  0.00000000E+00  0.00000000E+00
  0.00000000E+00  0.00000000E+00  0.00000000E+00
  0.00000000E+00  0.00000000E+00  0.00000000E+00
  0.00000000E+00  0.00000000E+00  0.00000000E+00
  0.00000000E+00  0.00000000E+00  0.00000000E+00
  0.00000000E+00  0.00000000E+00  0.00000000E+00
  0.00000000E+00  0.00000000E+00  0.00000000E+00
  0.00000000E+00  0.00000000E+00  0.00000000E+00
  0.00000000E+00  0.00000000E+00  0.00000000E+00
  0.00000000E+00  0.00000000E+00  0.00000000E+00
  0.00000000E+00  0.00000000E+00  0.00000000E+00
  0.00000000E+00  0.00000000E+00  0.00000000E+00
  0.00000000E+00  0.00000000E+00  0.00000000E+00
  0.00000000E+00  0.00000000E+00  0.00000000E+00
  0.00000000E+00  0.00000000E+00  0.00000000E+00
  0.00000000E+00  0.00000000E+00  0.00000000E+00
  0.00000000E+00  0.00000000E+00  0.00000000E+00
  0.00000000E+00  0.00000000E+00  0.00000000E+00
  0.00000000E+00  0.00000000E+00  0.00000000E+00
  0.00000000E+00  0.00000000E+00  0.00000000E+00
  0.00000000E+00  0.00000000E+00  0.00000000E+00
  0.00000000E+00  0.00000000E+00  0.00000000E+00
  0.00000000E+00  0.00000000E+00  0.00000000E+00
  0.00000000E+00  0.00000000E+00  0.00000000E+00
  0.00000000E+00  0.00000000E+00  0.00000000E+00
  0.00000000E+00  0.00000000E+00  0.00000000E+00
  0.00000000E+00  0.00000000E+00  0.00000000E+00
  0.00000000E+00  0.00000000E+00  0.00000000E+00
  0.00000000E+00  0.00000000E+00  0.00000000E+00
  0.00000000E+00  0.00000000E+00  0.00000000E+00
  0.00000000E+00  0.00000000E+00  0.00000000E+00
  0.00000000E+00  0.00000000E+00  0.00000000E+00
  0.00000000E+00  0.00000000E+00  0.00000000E+00
  0.00000000E+00  0.00000000E+00  0.00000000E+00
  0.00000000E+00  0.00000000E+00  0.00000000E+00
  0.00000000E+00  0.00000000E+00  0.00000000E+00
  0.00000000E+00  0.00000000E+00  0.00000000E+00
  0.00000000E+00  0.00000000E+00  0.00000000E+00
  0.00000000E+00  0.00000000E+00  0.00000000E+00
  0.00000000E+00  0.00000000E+00  0.00000000E+00
  0.00000000E+00  0.00000000E+00  0.00000000E+00
  0.00000000E+00  0.00000000E+00  0.00000000E+00